Si Al Si  O Cu  O  H  O  H              
   1.00000000000000     
    13.7117428102485572   -0.0007089864482829   -0.0000772515146739
    -6.8564341089479353   11.8743831809937230    0.0002001064042076
    -0.0000601617969401    0.0001113862051393   14.9361759746568339
   Si   Al   Si   O    Cu   O    H    O    H 
    29     1     6    72     1     1     1     1     2
Direct
  0.5604903950091891  0.6636916960978010  0.5627581334046706
  0.3348227297856872  0.8907801477962983  0.5626140627721306
  0.0000336584583047  0.2236000382342929  0.1083725788259480
  0.3348388813277314  0.8943156064542397  0.7721143546885699
  0.7736695320373105  0.7685485332125697  0.1047211143468147
  0.4338739798389037  0.0917095085014530  0.4345213376271774
  0.6667483049938073  0.0967457493343135  0.4362808633005448
  0.1061955422619948  0.4365658409343987  0.7726666487481039
  0.2260504177139309  0.2194443807047694  0.1104630293372125
  0.2280998119476518  0.9952948397026857  0.1051254841773327
  0.8984004751130261  0.5634953292305273  0.4362913658107377
  0.5629791739858893  0.8938689701562478  0.7722750655854858
  0.0005757747762404  0.7674298405991002  0.1034075206335115
  0.3363061454449201  0.4351058774184073  0.7766278942525783
  0.0980699115330806  0.4280881369325294  0.5646486697496145
  0.7719439896336120  0.9949266808633996  0.1060178473024767
 -0.0001927456975459  0.7684172731115473  0.8931358720555593
  0.8959664090194336  0.3299905879206670  0.2312662469755504
  0.8899038648837628  0.3316807824321066  0.4385612930823257
  0.1071605636677247  0.6643840051792148  0.7723829109651839
  0.5619515924181538  0.6652421802745940  0.7716571160102538
  0.8965041128706540  0.5583263520010218  0.2294646112456287
  0.5677460084922764  0.8950076609059536  0.5635752975886139
  0.7741160762302989 -0.0011659030473983  0.8959262723625434
  0.4372054815565268  0.3294565567122725  0.2336375157262782
  0.2267470176950990  0.2237732683580742  0.8994456064893239
  0.6675671169019014  0.0997500199124276  0.2296784369633393
  0.7745148064982635  0.7720103444001446  0.8942245241821726
  0.4365462089926423  0.0974248576112857  0.2302036017773592
  0.3297425270547630  0.4332074373246266  0.5634531893518666
  0.0004731455970354  0.2268409559380118  0.8986856457043111
  0.6665802088666053  0.5577727115365974  0.2298434145053063
  0.2277786734432532 -0.0010844051735575  0.8935382342308321
  0.1071487815521184  0.6606398630246200  0.5625873587612286
  0.4459368435667661  0.3293367333576497  0.4380569089083126
  0.6694761496127093  0.5625025773951808  0.4367380722239129
  0.2351671667933479  0.7664477988307440  0.7925129469691664
  0.1196190875612182  0.2345006192212227  0.1353238693769478
  0.9039757800825012  0.8009582235386601  0.1231581289464938
  0.5596431044649995  0.1144844731584205  0.4521383006858911
  0.2364187849147437  0.4660753755389801  0.7841898927795543
  0.1946665201645939  0.0902430022731605  0.1317161157446445
  0.0004171197373248  0.2573338295129076  0.0039043184915603
  0.5295355538636549  0.7634118178374609  0.7887201002351193
  0.1002857452574568  0.8976361631994285  0.8738386106995865
  0.8079500892227752  0.9025125737719677  0.8762363668662257
  0.4320740648368284  0.5702903335645274  0.5445040957370105
  0.0976168568867192  0.1932776769042957  0.8808027974430109
  0.7657954742441211  0.5265154737339610  0.2168484476625652
  0.1342726594758129  0.5599578676710768  0.5454947072320313
  0.4652230517790233  0.2276845618453502  0.2219115619983856
  0.6474042412220061  0.6432453425301151  0.5019102322820855
  0.7668392715086045  0.2295360318495247  0.2139679764837827
  0.6674858402641107  0.6867192567828855  0.8342510728602323
  0.0180491827594621  0.6812087373149862  0.8323397345260750
  0.3175131894430985  0.9843195419639214  0.8317580922543296
  0.6869288010428068  0.6596328910119241  0.1631259339884634
  0.3451137460443749  0.9953481490285364  0.5028288398238213
  0.0240443612249308  0.3349447569558264  0.8393078080307587
  0.3381066854981262  0.0161084672313522  0.1610262879949396
  0.9866488506516570  0.3457848405438183  0.5068069881251077
  0.6671355595073551  0.9781335749443762  0.8358179962766973
  0.6836396228639536  0.0143774988333518  0.1645233574029566
  0.3660139999826315  0.3362225590873651  0.5157550847964425
  0.9787690365545729  0.6598267516025784  0.1628953473447953
  0.3329648874977584  0.3082514595726319  0.1695831727964628
  0.0028058171664451  0.6451010595906669  0.5009669338616719
  0.6571853971342053 -0.0012960134627360  0.5020220755855322
  0.9823590625906208  0.3106832453824526  0.1698815380578681
  0.4392503411114030  0.8692076596779273  0.5445442438245951
  0.7788548319516821  0.2128286440117609  0.4610348396106811
  0.8597168787048413  0.4315985731664014  0.4520965255563777
  0.9009838887631232  0.0940045419017195  0.1257874566630005
  0.2176885673610389  0.7796610885106480  0.5359920635594504
  0.7594859602856745  0.8748216100067245  0.1338358831141625
  0.4354507755445486  0.2078627677195615  0.4555438587890122
  0.0994000739851798  0.5471874314153395  0.8013761770440575
  0.1230859799322837  0.8725663713309822  0.1299882539519910
  0.4547483734440102  0.5459739043502485  0.8014568768940880
  0.8810813122667235  0.7582844410303340  0.8655259170463045
  0.5482582523601812  0.0912772394178861  0.2059870894531431
  0.1973282238558229  0.4056312192215606  0.5374764306446801
  0.2374553997983733  0.1173598303185055  0.8616304145462701
  0.9062168467375626  0.4488720706559450  0.2031231670774469
  0.5795681538318482  0.7875223606970294  0.5375169475345868
  0.3155711829056987  0.3359806357099471  0.8465974770067404
  0.6650866505297232  0.5967146905741700  0.3326018008364894
  0.5761661607350488  0.4291836461227342  0.4510449876886912
  0.3317024598489457  0.9253923897479622  0.6669846061552517
  0.8799443070918297  0.1208730609549727  0.8698861408941578
  0.5469413481789308  0.4472622612512146  0.2047960310247513
  0.7434458523930332  0.7396488574960483  0.9992552327202578
  0.3385623169892528  0.3909375115293051  0.6755360529778665
  0.3941683774732972  0.0516149705517467  0.3317967467080045
  0.0636659973809228  0.4007217050060928  0.6705751145570856
  0.2585779360744584  0.0027410699845566 -0.0012748415539882
  0.9304165948132395  0.3323682326543766  0.3357355273415643
  0.5958913539246243  0.6644088671774250  0.6677858908197668
  0.7413483789957112  0.9954232337314413  0.0009283343788969
  0.7930834694226130  0.5811008324428666  0.4601666779340245
  0.4025831201197200  0.3353703137197880  0.3376042871063925
  0.2576688946312565  0.2446849787710354  0.0049156377613372
  0.9371644670953749  0.5977341690689643  0.3322335148258468
  0.5984597834125630  0.9292422420906317  0.6684238687442821
 -0.0001429276330314  0.7368995333279342  0.9980277848404915
  0.6692438329608794  0.0613352614050593  0.3325699731828194
  0.0758525929508908  0.6644352273434539  0.6674280457612299
  0.4552326864517820  0.9075428242856535  0.7981174066335813
  0.3860378152166021  0.2775931795417254  0.6358460964335454
  0.4637776952614498  0.2470067886672527  0.7173747289052582
  0.4209168590688502  0.1742487648979518  0.7474831038874332
  0.2228753836526135  0.1132508798109721  0.6373577217268203
  0.2033553924142084  0.0901451796972340  0.6997913346115979
  0.2330988589986008  0.0547749209278036  0.6089507743603465
 
  0.00000000E+00  0.00000000E+00  0.00000000E+00
  0.00000000E+00  0.00000000E+00  0.00000000E+00
  0.00000000E+00  0.00000000E+00  0.00000000E+00
  0.00000000E+00  0.00000000E+00  0.00000000E+00
  0.00000000E+00  0.00000000E+00  0.00000000E+00
  0.00000000E+00  0.00000000E+00  0.00000000E+00
  0.00000000E+00  0.00000000E+00  0.00000000E+00
  0.00000000E+00  0.00000000E+00  0.00000000E+00
  0.00000000E+00  0.00000000E+00  0.00000000E+00
  0.00000000E+00  0.00000000E+00  0.00000000E+00
  0.00000000E+00  0.00000000E+00  0.00000000E+00
  0.00000000E+00  0.00000000E+00  0.00000000E+00
  0.00000000E+00  0.00000000E+00  0.00000000E+00
  0.00000000E+00  0.00000000E+00  0.00000000E+00
  0.00000000E+00  0.00000000E+00  0.00000000E+00
  0.00000000E+00  0.00000000E+00  0.00000000E+00
  0.00000000E+00  0.00000000E+00  0.00000000E+00
  0.00000000E+00  0.00000000E+00  0.00000000E+00
  0.00000000E+00  0.00000000E+00  0.00000000E+00
  0.00000000E+00  0.00000000E+00  0.00000000E+00
  0.00000000E+00  0.00000000E+00  0.00000000E+00
  0.00000000E+00  0.00000000E+00  0.00000000E+00
  0.00000000E+00  0.00000000E+00  0.00000000E+00
  0.00000000E+00  0.00000000E+00  0.00000000E+00
  0.00000000E+00  0.00000000E+00  0.00000000E+00
  0.00000000E+00  0.00000000E+00  0.00000000E+00
  0.00000000E+00  0.00000000E+00  0.00000000E+00
  0.00000000E+00  0.00000000E+00  0.00000000E+00
  0.00000000E+00  0.00000000E+00  0.00000000E+00
  0.00000000E+00  0.00000000E+00  0.00000000E+00
  0.00000000E+00  0.00000000E+00  0.00000000E+00
  0.00000000E+00  0.00000000E+00  0.00000000E+00
  0.00000000E+00  0.00000000E+00  0.00000000E+00
  0.00000000E+00  0.00000000E+00  0.00000000E+00
  0.00000000E+00  0.00000000E+00  0.00000000E+00
  0.00000000E+00  0.00000000E+00  0.00000000E+00
  0.00000000E+00  0.00000000E+00  0.00000000E+00
  0.00000000E+00  0.00000000E+00  0.00000000E+00
  0.00000000E+00  0.00000000E+00  0.00000000E+00
  0.00000000E+00  0.00000000E+00  0.00000000E+00
  0.00000000E+00  0.00000000E+00  0.00000000E+00
  0.00000000E+00  0.00000000E+00  0.00000000E+00
  0.00000000E+00  0.00000000E+00  0.00000000E+00
  0.00000000E+00  0.00000000E+00  0.00000000E+00
  0.00000000E+00  0.00000000E+00  0.00000000E+00
  0.00000000E+00  0.00000000E+00  0.00000000E+00
  0.00000000E+00  0.00000000E+00  0.00000000E+00
  0.00000000E+00  0.00000000E+00  0.00000000E+00
  0.00000000E+00  0.00000000E+00  0.00000000E+00
  0.00000000E+00  0.00000000E+00  0.00000000E+00
  0.00000000E+00  0.00000000E+00  0.00000000E+00
  0.00000000E+00  0.00000000E+00  0.00000000E+00
  0.00000000E+00  0.00000000E+00  0.00000000E+00
  0.00000000E+00  0.00000000E+00  0.00000000E+00
  0.00000000E+00  0.00000000E+00  0.00000000E+00
  0.00000000E+00  0.00000000E+00  0.00000000E+00
  0.00000000E+00  0.00000000E+00  0.00000000E+00
  0.00000000E+00  0.00000000E+00  0.00000000E+00
  0.00000000E+00  0.00000000E+00  0.00000000E+00
  0.00000000E+00  0.00000000E+00  0.00000000E+00
  0.00000000E+00  0.00000000E+00  0.00000000E+00
  0.00000000E+00  0.00000000E+00  0.00000000E+00
  0.00000000E+00  0.00000000E+00  0.00000000E+00
  0.00000000E+00  0.00000000E+00  0.00000000E+00
  0.00000000E+00  0.00000000E+00  0.00000000E+00
  0.00000000E+00  0.00000000E+00  0.00000000E+00
  0.00000000E+00  0.00000000E+00  0.00000000E+00
  0.00000000E+00  0.00000000E+00  0.00000000E+00
  0.00000000E+00  0.00000000E+00  0.00000000E+00
  0.00000000E+00  0.00000000E+00  0.00000000E+00
  0.00000000E+00  0.00000000E+00  0.00000000E+00
  0.00000000E+00  0.00000000E+00  0.00000000E+00
  0.00000000E+00  0.00000000E+00  0.00000000E+00
  0.00000000E+00  0.00000000E+00  0.00000000E+00
  0.00000000E+00  0.00000000E+00  0.00000000E+00
  0.00000000E+00  0.00000000E+00  0.00000000E+00
  0.00000000E+00  0.00000000E+00  0.00000000E+00
  0.00000000E+00  0.00000000E+00  0.00000000E+00
  0.00000000E+00  0.00000000E+00  0.00000000E+00
  0.00000000E+00  0.00000000E+00  0.00000000E+00
  0.00000000E+00  0.00000000E+00  0.00000000E+00
  0.00000000E+00  0.00000000E+00  0.00000000E+00
  0.00000000E+00  0.00000000E+00  0.00000000E+00
  0.00000000E+00  0.00000000E+00  0.00000000E+00
  0.00000000E+00  0.00000000E+00  0.00000000E+00
  0.00000000E+00  0.00000000E+00  0.00000000E+00
  0.00000000E+00  0.00000000E+00  0.00000000E+00
  0.00000000E+00  0.00000000E+00  0.00000000E+00
  0.00000000E+00  0.00000000E+00  0.00000000E+00
  0.00000000E+00  0.00000000E+00  0.00000000E+00
  0.00000000E+00  0.00000000E+00  0.00000000E+00
  0.00000000E+00  0.00000000E+00  0.00000000E+00
  0.00000000E+00  0.00000000E+00  0.00000000E+00
  0.00000000E+00  0.00000000E+00  0.00000000E+00
  0.00000000E+00  0.00000000E+00  0.00000000E+00
  0.00000000E+00  0.00000000E+00  0.00000000E+00
  0.00000000E+00  0.00000000E+00  0.00000000E+00
  0.00000000E+00  0.00000000E+00  0.00000000E+00
  0.00000000E+00  0.00000000E+00  0.00000000E+00
  0.00000000E+00  0.00000000E+00  0.00000000E+00
  0.00000000E+00  0.00000000E+00  0.00000000E+00
  0.00000000E+00  0.00000000E+00  0.00000000E+00
  0.00000000E+00  0.00000000E+00  0.00000000E+00
  0.00000000E+00  0.00000000E+00  0.00000000E+00
  0.00000000E+00  0.00000000E+00  0.00000000E+00
  0.00000000E+00  0.00000000E+00  0.00000000E+00
  0.00000000E+00  0.00000000E+00  0.00000000E+00
  0.00000000E+00  0.00000000E+00  0.00000000E+00
  0.00000000E+00  0.00000000E+00  0.00000000E+00
  0.00000000E+00  0.00000000E+00  0.00000000E+00
  0.00000000E+00  0.00000000E+00  0.00000000E+00
  0.00000000E+00  0.00000000E+00  0.00000000E+00
  0.00000000E+00  0.00000000E+00  0.00000000E+00
  0.00000000E+00  0.00000000E+00  0.00000000E+00
