Si Al Si  O Cu  O  H  O  H              
   1.00000000000000     
    13.7117428102485572   -0.0007089864482829   -0.0000772515146739
    -6.8564341089479353   11.8743831809937230    0.0002001064042076
    -0.0000601617969401    0.0001113862051393   14.9361759746568339
   Si   Al   Si   O    Cu   O    H    O    H 
    29     1     6    72     1     1     1     1     2
Direct
  0.5609180966352783  0.6680814818281607  0.5605347250467957
  0.3326896688855562  0.8924608436783187  0.5606434784598813
  0.9972867095710960  0.2256669984095522  0.1068001321728344
  0.3320466323474179  0.8944742943001388  0.7705885400269017
  0.7704175336162963  0.7708040082502113  0.1030258767712404
  0.4320786946447243  0.0942101092033765  0.4329516486474321
  0.6646959394030006  0.0993263162616398  0.4335917191092805
  0.1015174243695091  0.4372414735941178  0.7706566396849048
  0.2246521713336800  0.2241046378141515  0.1085362519354916
  0.2259904731492272  0.9970400251687123  0.1031703571073872
  0.8968704871147959  0.5662191096304292  0.4341373131100428
  0.5622946133956281  0.8983136044920704  0.7701437931878838
  0.9983142765136197  0.7705669441983592  0.1022889525958482
  0.3328692526368072  0.4391033731040350  0.7748908248950758
  0.0952571550045602  0.4300371699173359  0.5624292297758346
  0.7683875862681715  0.9968284382145861  0.1038953876267319
  0.9983394592785169  0.7729362534915503  0.8918742269870096
  0.8937534087801566  0.3324742723251334  0.2286756668945892
  0.8882992517544642  0.3342524158263769  0.4364480114570636
  0.1041721827358727  0.6665926337969276  0.7700155323326949
  0.5611825702450790  0.6680427694413541  0.7690160818021694
  0.8939615610201644  0.5604461069895326  0.2266446299363577
  0.5665515990849054  0.8990792451309650  0.5620107425880119
  0.7716844310117139  0.0005050939724367  0.8935046109289719
  0.4350195002089662  0.3326155729874058  0.2324909056005882
  0.2276470831690397  0.2287134409475319  0.8989223404748329
  0.6647331387408966  0.1017921101388393  0.2270477121029040
  0.7709554614999029  0.7726520116449687  0.8922961496478524
  0.4337306311033819  0.0997293891117922  0.2289486755098540
  0.3286498818763834  0.4382217026362223  0.5594363985611321
  0.9993072840477252  0.2286434832195305  0.8971757839609701
  0.6632459333704142  0.5594680025097141  0.2267242911612846
  0.2259245209128528  0.0007594394912180  0.8926858511813368
  0.1038843725720860  0.6637687611760658  0.5609008907255557
  0.4445199700346446  0.3325147474876169  0.4380644260937368
  0.6677054214454232  0.5659208438911226  0.4347724549268248
  0.2340268832931020  0.7648814488347961  0.7887893081300857
  0.1158451319297730  0.2348192166983973  0.1342814738452646
  0.8999726747593613  0.8016558177172390  0.1221007226036029
  0.5583787809129117  0.1179643916367264  0.4501272136479880
  0.2321401916202652  0.4682444664088993  0.7841378619118471
  0.1951114588288887  0.0948130838815545  0.1256231860681353
  0.9982507970836541  0.2593254885199174  0.0022274361990337
  0.5326720348440395  0.7688939136947113  0.7856711417178934
  0.0964260305195336  0.9028710181867121  0.8729200193789921
  0.8019316829402233  0.9019945467218700  0.8724080631333151
  0.4330742947960394  0.5742341946273848  0.5406843668678372
  0.0984772482842985  0.1981196825603189  0.8795745255142333
  0.7637300547532968  0.5301477833563767  0.2137553082442786
  0.1278959605573647  0.5608636395216212  0.5447803164933113
  0.4610692292038323  0.2296403440774425  0.2210337545738188
  0.6486960758539987  0.6496889310224461  0.4987616606479509
  0.7653025297685088  0.2309731886254214  0.2112687154841583
  0.6642160050121683  0.6851789008154735  0.8328600773520272
  0.0181667903052751  0.6862689503823594  0.8315099857629973
  0.3122105044419430  0.9811250764503093  0.8313097252695724
  0.6828778577812341  0.6623404224770982  0.1616291525182468
  0.3443206501613525  0.9971819914505099  0.5007777636074713
  0.0197077811644980  0.3355807087012027  0.8373392656615212
  0.3350743066926112  0.0178100627362069  0.1604066072423156
  0.9847242813995367  0.3461965532709121  0.5041996214154016
  0.6658371140115513  0.9839106342622834  0.8337144833677284
  0.6788256665205260  0.0154712629559773  0.1614641306496749
  0.3629974253249585  0.3388988291417267  0.5143578197616963
  0.9772325072417567  0.6623680006749434  0.1609062201804031
  0.3286537139398826  0.3110303985009297  0.1711505699513389
  0.0009854822040588  0.6498619717881348  0.4980812475002449
  0.6557058219382795  0.0017164458885612  0.4994423702239760
  0.9812263146305247  0.3141324953904864  0.1679883767458356
  0.4376157830303193  0.8712881669727719  0.5426891569012614
  0.7768084475129424  0.2156132040569564  0.4582801756656446
  0.8592804522324492  0.4348437278654876  0.4523214524098924
  0.8966290842489508  0.0969187597467710  0.1246082428292717
  0.2161045428435493  0.7808511239456217  0.5338221385092704
  0.7569105832607284  0.8773674766959650  0.1323978777794562
  0.4349203690677126  0.2113246503781050  0.4522683997430007
  0.0918351891130060  0.5467294473852516  0.7973568159851232
  0.1192476322994978  0.8764762555587984  0.1309228853495922
  0.4510756787779968  0.5505412155734426  0.7981370837888511
  0.8780659174114088  0.7595569816870376  0.8645539614300344
  0.5462448542290879  0.0953238635121127  0.2038988862880784
  0.1966699263513663  0.4116023273846104  0.5335838085342801
  0.2405383170557107  0.1224664869409043  0.8672938721797936
  0.9024626393790985  0.4504889007382360  0.1998428638245410
  0.5797814972225155  0.7920756224544836  0.5372412210304548
  0.3156595200689477  0.3388021840254236  0.8422816740527040
  0.6596090196848204  0.5950819040574047  0.3303088681120128
  0.5749678370023350  0.4330530816321435  0.4553963295716242
  0.3294650009268422  0.9262966935439636  0.6652675564901359
  0.8797933016103631  0.1213386814847197  0.8683981185422280
  0.5444872474390277  0.4488695119808745  0.2003213218789980
  0.7402789924238929  0.7420747192298160  0.9976057859334713
  0.3341935168796571  0.3953973366585821  0.6727213335831770
  0.3922194686304438  0.0533397506025738  0.3303981970419940
  0.0614775414388615  0.3998972990139897  0.6681857847597188
  0.2561966647682294  0.9985411998011633  0.9976770507995867
  0.9282441221839086  0.3363783170789140  0.3333670762346152
  0.5954580321708818  0.6663364431392159  0.6653614462880810
  0.7389144807388278  0.9966442881421158  0.9985367432246696
  0.7908266663735184  0.5829903461314458  0.4577875775053829
  0.4058556998524898  0.3433242293484862  0.3371279392033517
  0.2590922614060550  0.2571663677502281  0.0041536246371925
  0.9340064745913956  0.5982585774632506  0.3297570193963300
  0.5975665095742613  0.9355404339602910  0.6664606800224208
  0.9989713105979632  0.7414750624987088  0.9968287861172561
  0.6667223370727212  0.0635310380084767  0.3299707952748481
  0.0717468631482759  0.6682775522877485  0.6653813257257120
  0.4528384650438584  0.9083651284354264  0.7965607132722936
  0.3821241593513771  0.2867124774631558  0.6430861378409759
  0.4106939467781252  0.1760259653555087  0.6691080617246569
  0.3560504385523592  0.0978894226517573  0.6541993051477498
  0.5792597659402743  0.3964376455395228  0.6613805489089670
  0.6144303571400225  0.4159882556015845  0.6022562666970258
  0.5815583070777006  0.3288258739142889  0.6790149786036338
 
  0.00000000E+00  0.00000000E+00  0.00000000E+00
  0.00000000E+00  0.00000000E+00  0.00000000E+00
  0.00000000E+00  0.00000000E+00  0.00000000E+00
  0.00000000E+00  0.00000000E+00  0.00000000E+00
  0.00000000E+00  0.00000000E+00  0.00000000E+00
  0.00000000E+00  0.00000000E+00  0.00000000E+00
  0.00000000E+00  0.00000000E+00  0.00000000E+00
  0.00000000E+00  0.00000000E+00  0.00000000E+00
  0.00000000E+00  0.00000000E+00  0.00000000E+00
  0.00000000E+00  0.00000000E+00  0.00000000E+00
  0.00000000E+00  0.00000000E+00  0.00000000E+00
  0.00000000E+00  0.00000000E+00  0.00000000E+00
  0.00000000E+00  0.00000000E+00  0.00000000E+00
  0.00000000E+00  0.00000000E+00  0.00000000E+00
  0.00000000E+00  0.00000000E+00  0.00000000E+00
  0.00000000E+00  0.00000000E+00  0.00000000E+00
  0.00000000E+00  0.00000000E+00  0.00000000E+00
  0.00000000E+00  0.00000000E+00  0.00000000E+00
  0.00000000E+00  0.00000000E+00  0.00000000E+00
  0.00000000E+00  0.00000000E+00  0.00000000E+00
  0.00000000E+00  0.00000000E+00  0.00000000E+00
  0.00000000E+00  0.00000000E+00  0.00000000E+00
  0.00000000E+00  0.00000000E+00  0.00000000E+00
  0.00000000E+00  0.00000000E+00  0.00000000E+00
  0.00000000E+00  0.00000000E+00  0.00000000E+00
  0.00000000E+00  0.00000000E+00  0.00000000E+00
  0.00000000E+00  0.00000000E+00  0.00000000E+00
  0.00000000E+00  0.00000000E+00  0.00000000E+00
  0.00000000E+00  0.00000000E+00  0.00000000E+00
  0.00000000E+00  0.00000000E+00  0.00000000E+00
  0.00000000E+00  0.00000000E+00  0.00000000E+00
  0.00000000E+00  0.00000000E+00  0.00000000E+00
  0.00000000E+00  0.00000000E+00  0.00000000E+00
  0.00000000E+00  0.00000000E+00  0.00000000E+00
  0.00000000E+00  0.00000000E+00  0.00000000E+00
  0.00000000E+00  0.00000000E+00  0.00000000E+00
  0.00000000E+00  0.00000000E+00  0.00000000E+00
  0.00000000E+00  0.00000000E+00  0.00000000E+00
  0.00000000E+00  0.00000000E+00  0.00000000E+00
  0.00000000E+00  0.00000000E+00  0.00000000E+00
  0.00000000E+00  0.00000000E+00  0.00000000E+00
  0.00000000E+00  0.00000000E+00  0.00000000E+00
  0.00000000E+00  0.00000000E+00  0.00000000E+00
  0.00000000E+00  0.00000000E+00  0.00000000E+00
  0.00000000E+00  0.00000000E+00  0.00000000E+00
  0.00000000E+00  0.00000000E+00  0.00000000E+00
  0.00000000E+00  0.00000000E+00  0.00000000E+00
  0.00000000E+00  0.00000000E+00  0.00000000E+00
  0.00000000E+00  0.00000000E+00  0.00000000E+00
  0.00000000E+00  0.00000000E+00  0.00000000E+00
  0.00000000E+00  0.00000000E+00  0.00000000E+00
  0.00000000E+00  0.00000000E+00  0.00000000E+00
  0.00000000E+00  0.00000000E+00  0.00000000E+00
  0.00000000E+00  0.00000000E+00  0.00000000E+00
  0.00000000E+00  0.00000000E+00  0.00000000E+00
  0.00000000E+00  0.00000000E+00  0.00000000E+00
  0.00000000E+00  0.00000000E+00  0.00000000E+00
  0.00000000E+00  0.00000000E+00  0.00000000E+00
  0.00000000E+00  0.00000000E+00  0.00000000E+00
  0.00000000E+00  0.00000000E+00  0.00000000E+00
  0.00000000E+00  0.00000000E+00  0.00000000E+00
  0.00000000E+00  0.00000000E+00  0.00000000E+00
  0.00000000E+00  0.00000000E+00  0.00000000E+00
  0.00000000E+00  0.00000000E+00  0.00000000E+00
  0.00000000E+00  0.00000000E+00  0.00000000E+00
  0.00000000E+00  0.00000000E+00  0.00000000E+00
  0.00000000E+00  0.00000000E+00  0.00000000E+00
  0.00000000E+00  0.00000000E+00  0.00000000E+00
  0.00000000E+00  0.00000000E+00  0.00000000E+00
  0.00000000E+00  0.00000000E+00  0.00000000E+00
  0.00000000E+00  0.00000000E+00  0.00000000E+00
  0.00000000E+00  0.00000000E+00  0.00000000E+00
  0.00000000E+00  0.00000000E+00  0.00000000E+00
  0.00000000E+00  0.00000000E+00  0.00000000E+00
  0.00000000E+00  0.00000000E+00  0.00000000E+00
  0.00000000E+00  0.00000000E+00  0.00000000E+00
  0.00000000E+00  0.00000000E+00  0.00000000E+00
  0.00000000E+00  0.00000000E+00  0.00000000E+00
  0.00000000E+00  0.00000000E+00  0.00000000E+00
  0.00000000E+00  0.00000000E+00  0.00000000E+00
  0.00000000E+00  0.00000000E+00  0.00000000E+00
  0.00000000E+00  0.00000000E+00  0.00000000E+00
  0.00000000E+00  0.00000000E+00  0.00000000E+00
  0.00000000E+00  0.00000000E+00  0.00000000E+00
  0.00000000E+00  0.00000000E+00  0.00000000E+00
  0.00000000E+00  0.00000000E+00  0.00000000E+00
  0.00000000E+00  0.00000000E+00  0.00000000E+00
  0.00000000E+00  0.00000000E+00  0.00000000E+00
  0.00000000E+00  0.00000000E+00  0.00000000E+00
  0.00000000E+00  0.00000000E+00  0.00000000E+00
  0.00000000E+00  0.00000000E+00  0.00000000E+00
  0.00000000E+00  0.00000000E+00  0.00000000E+00
  0.00000000E+00  0.00000000E+00  0.00000000E+00
  0.00000000E+00  0.00000000E+00  0.00000000E+00
  0.00000000E+00  0.00000000E+00  0.00000000E+00
  0.00000000E+00  0.00000000E+00  0.00000000E+00
  0.00000000E+00  0.00000000E+00  0.00000000E+00
  0.00000000E+00  0.00000000E+00  0.00000000E+00
  0.00000000E+00  0.00000000E+00  0.00000000E+00
  0.00000000E+00  0.00000000E+00  0.00000000E+00
  0.00000000E+00  0.00000000E+00  0.00000000E+00
  0.00000000E+00  0.00000000E+00  0.00000000E+00
  0.00000000E+00  0.00000000E+00  0.00000000E+00
  0.00000000E+00  0.00000000E+00  0.00000000E+00
  0.00000000E+00  0.00000000E+00  0.00000000E+00
  0.00000000E+00  0.00000000E+00  0.00000000E+00
  0.00000000E+00  0.00000000E+00  0.00000000E+00
  0.00000000E+00  0.00000000E+00  0.00000000E+00
  0.00000000E+00  0.00000000E+00  0.00000000E+00
  0.00000000E+00  0.00000000E+00  0.00000000E+00
  0.00000000E+00  0.00000000E+00  0.00000000E+00
  0.00000000E+00  0.00000000E+00  0.00000000E+00
  0.00000000E+00  0.00000000E+00  0.00000000E+00
  0.00000000E+00  0.00000000E+00  0.00000000E+00
