ENCUT = 400.000000
 POTIM = 0.050000
 SIGMA = 0.010000
 EDIFF = 1.00e-06
 EDIFFG = -3.00e-02
 NUPDOWN = 1
 NPAR = 4
 ALGO = VeryFast
 GGA = PE
 PREC = Normal
 IBRION = 2
 IDIPOL = 4
 ISIF = 2
 ISMEAR = 0
 ISPIN = 2
 LDAUPRINT = 2
 LDAUTYPE = 2
 LORBIT = 11
 NELM = 250
 NSW = 500
 LCHARG = .FALSE.
 LDAU = .FALSE.
 LVTOT = .FALSE.
 LWAVE = .FALSE.
 LMONO = .TRUE.
 LREAL = auto
 IVDW = 11

