Si Al Si  O Cu  O  H  O  H  O  H        
   1.00000000000000     
    13.7117428102485572   -0.0007089864482829   -0.0000772515146739
    -6.8564341089479353   11.8743831809937230    0.0002001064042076
    -0.0000601617969401    0.0001113862051393   14.9361759746568339
   Si   Al   Si   O    Cu   O    H    O    H    O    H 
    29     1     6    72     1     1     1     1     2     1     2
Direct
  0.5564165367148737  0.6623672161560062  0.5591506356913428
  0.3332877331156395  0.8887198032445227  0.5574347107501170
  0.9965778691640454  0.2233906220478172  0.1048941518354881
  0.3319569739134806  0.8935100574919843  0.7682596997205596
  0.7690705409656393  0.7687342193982033  0.1009093397278393
  0.4331146419165923  0.0918222459657800  0.4292209816440650
  0.6657300578588318  0.0974091169299687  0.4305571983156530
  0.0993336664818641  0.4361728964382102  0.7684946421182979
  0.2239404015035303  0.2226949386555044  0.1064336131787620
  0.2253106610335953  0.9963279147710400  0.0998718482999819
  0.8944832767428786  0.5620695943725128  0.4334259694712171
  0.5616863251683240  0.8994442441084215  0.7667270364104767
  0.9972202927246698  0.7697555622399156  0.0999897991178415
  0.3336230260158010  0.4413516131734023  0.7749518330717733
  0.0954762959973750  0.4280117786693509  0.5621025501553901
  0.7684040066711025  0.9958128652204311  0.1010284406383669
  0.9975624451184338  0.7723648199601820  0.8895465268285838
  0.8927260468029916  0.3311209285845580  0.2263504575636184
  0.8876881164993923  0.3311225538369521  0.4340527193551724
  0.1050880415029420  0.6664114769704854  0.7679844419670530
  0.5573991666554557  0.6663439883183102  0.7683437883720203
  0.8925203454950665  0.5593901505762610  0.2250649671738759
  0.5655835533699762  0.8960171082211027  0.5591457550064695
  0.7719737895407719 -0.0000405779656362  0.8907811633345405
  0.4334556368412791  0.3304128067608790  0.2325545859544071
  0.2264476824797316  0.2278832849649842  0.8967892275284927
  0.6649946024071429  0.1021316343536514  0.2237098233166023
  0.7702648812660391  0.7715414030044868  0.8903481280977554
  0.4333525269928385  0.0982924556831000  0.2265262058300012
  0.3297529833907260  0.4358796816408216  0.5590679545641462
  0.9985137806867243  0.2272476586402749  0.8950341900987965
  0.6640102478194948  0.5582651735918180  0.2264065119366000
  0.2247541424595559  0.0004941947496371  0.8894701248103803
  0.1059465868826593  0.6614622082261614  0.5585158318171251
  0.4429930781449320  0.3288463350324144  0.4362470323059757
  0.6674177480261494  0.5612957103726652  0.4343571955532022
  0.2345273127751468  0.7638040214267151  0.7885487506982862
  0.1160134903177234  0.2348280974231864  0.1328235963687343
  0.8995255892202766  0.8020048615091073  0.1192984846572181
  0.5605321909363215  0.1182221252037941  0.4454247047107028
  0.2302626810049526  0.4671028966061439  0.7783951370995376
  0.1924996798264344  0.0926347495848946  0.1227665327616986
  0.9962707546104903  0.2561436376467877  0.0002967818824597
  0.5325255183210309  0.7698275300189362  0.7797815724461999
  0.0937468050221269  0.9031711211098805  0.8719631336025264
  0.8033948553626366  0.9015500669646563  0.8718398176756850
  0.4287213688566417  0.5733550102314231  0.5342880231839509
  0.0969207926059980  0.1958361574527297  0.8775923616189170
  0.7616828059053057  0.5256873958829004  0.2092109321993054
  0.1336780038409454  0.5606337618043516  0.5445582408234226
  0.4619409160098384  0.2288427942566919  0.2211147063584425
  0.6451538929453481  0.6417784245831212  0.5002440074819198
  0.7633541563997563  0.2323199390319381  0.2072924756965985
  0.6647212935663429  0.6864605520030527  0.8285385925815507
  0.0181134478864267  0.6873131517504519  0.8277060533818164
  0.3089848756035165  0.9792580751596357  0.8272158800562126
  0.6830506574839587  0.6606528982228187  0.1605887016846145
  0.3480784303128960  0.9961310896046881  0.4992932274700947
  0.0199411570078438  0.3354750244042708  0.8366690565115447
  0.3347217355252531  0.0184551778718787  0.1572247632441039
  0.9871136830569146  0.3483838161086865  0.5004158844818665
  0.6666242505606391  0.9824021472767581  0.8301256697144339
  0.6799669558182684  0.0162923277078491  0.1582658169417414
  0.3674686541309619  0.3391200160925010  0.5151941971904448
  0.9757123496662981  0.6623383878573759  0.1599286917825860
  0.3291064147268546  0.3085388569119900  0.1684954282941620
  0.0005600412766300  0.6428924244887911  0.4965986307943955
  0.6532369020540261 -0.0034722217169408  0.4942864584574588
  0.9788105159000026  0.3113348715697870  0.1651958707482699
  0.4359972322419549  0.8643159362318091  0.5375120291441873
  0.7787892991375650  0.2113916082842334  0.4584411022801934
  0.8555989071325306  0.4299150857195923  0.4473737372747540
  0.8974011087813049  0.0937418908433302  0.1225237891412529
  0.2153226990086231  0.7794811739874241  0.5287844714294073
  0.7538724695787278  0.8747369716022138  0.1285943668442934
  0.4320295971346649  0.2067295340019381  0.4488706946122600
  0.0906751631333348  0.5460146593088290  0.7962689503436701
  0.1189822758561858  0.8751412612161451  0.1272539632174303
  0.4481348907169314  0.5535294385241580  0.8055550192041619
  0.8754425943386579  0.7552173017205762  0.8601999094037091
  0.5453349545941942  0.0931244376968928  0.2009686981109568
  0.1947866340925922  0.4041804800949599  0.5383080354049760
  0.2403992108642588  0.1225983931180464  0.8644916663345504
  0.9056398991054598  0.4516649181799937  0.1998490532978467
  0.5830014570165387  0.7899832356437221  0.5401494455476874
  0.3131036754322435  0.3391044906512838  0.8411140294235625
  0.6685389862947183  0.5977874083672651  0.3301869849655638
  0.5748319833761182  0.4279833163785208  0.4472386777899258
  0.3308275764217556  0.9198363820507621  0.6621655127257444
  0.8793290628301726  0.1205622773509680  0.8647115867592455
  0.5430159099935468  0.4486824183860807  0.2036083294250918
  0.7391249266360891  0.7385521029100319  0.9951986958969539
  0.3474699183361967  0.4055139155056695  0.6731994046012624
  0.3915984717864782  0.0490016440750666  0.3273689049110458
  0.0554777483975893  0.3979855350724433  0.6668702249443035
  0.2558050057651178  0.9981961089670991  0.9943980171303388
  0.9258586729615900  0.3310386209270723  0.3307704815331321
  0.5849313039087138  0.6529636105418603  0.6647794768129885
  0.7394736453627094  0.9971567197499986  0.9956882904572257
  0.7903001324544210  0.5799688124384041  0.4635203319430380
  0.3993090318048644  0.3375921960177201  0.3363105363198096
  0.2577335531939048  0.2557629342388114  0.0020568595698751
  0.9278759345378770  0.5977129202224650  0.3289461072337735
  0.5948455071377455  0.9376795444855007  0.6629335649886954
  0.9961507199160509  0.7392366101161199  0.9943355985360267
  0.6699391016147611  0.0648129250707948  0.3263747587613881
  0.0745553667600587  0.6685151789617054  0.6628776633612352
  0.4532042288232161  0.9093349866360940  0.7965888117849308
  0.4135016129339067  0.3087520001291377  0.6503040896742474
  0.4269390560109843  0.1835706757246773  0.6582602897634345
  0.3925410483245988  0.1298654894668236  0.6093420623276066
  0.5581504129890498  0.3830957402030883  0.7256676073572119
  0.6310872498291228  0.4495245392889183  0.7046071819693834
  0.5694250611799624  0.3178210673954496  0.7246314365393497
  0.7632244728107855  0.5540675433337170  0.6850493295618704
  0.7921149459820847  0.6117001354882904  0.7316786667599439
  0.7781615855165479  0.5944433843653508  0.6283062589694786
 
  0.00000000E+00  0.00000000E+00  0.00000000E+00
  0.00000000E+00  0.00000000E+00  0.00000000E+00
  0.00000000E+00  0.00000000E+00  0.00000000E+00
  0.00000000E+00  0.00000000E+00  0.00000000E+00
  0.00000000E+00  0.00000000E+00  0.00000000E+00
  0.00000000E+00  0.00000000E+00  0.00000000E+00
  0.00000000E+00  0.00000000E+00  0.00000000E+00
  0.00000000E+00  0.00000000E+00  0.00000000E+00
  0.00000000E+00  0.00000000E+00  0.00000000E+00
  0.00000000E+00  0.00000000E+00  0.00000000E+00
  0.00000000E+00  0.00000000E+00  0.00000000E+00
  0.00000000E+00  0.00000000E+00  0.00000000E+00
  0.00000000E+00  0.00000000E+00  0.00000000E+00
  0.00000000E+00  0.00000000E+00  0.00000000E+00
  0.00000000E+00  0.00000000E+00  0.00000000E+00
  0.00000000E+00  0.00000000E+00  0.00000000E+00
  0.00000000E+00  0.00000000E+00  0.00000000E+00
  0.00000000E+00  0.00000000E+00  0.00000000E+00
  0.00000000E+00  0.00000000E+00  0.00000000E+00
  0.00000000E+00  0.00000000E+00  0.00000000E+00
  0.00000000E+00  0.00000000E+00  0.00000000E+00
  0.00000000E+00  0.00000000E+00  0.00000000E+00
  0.00000000E+00  0.00000000E+00  0.00000000E+00
  0.00000000E+00  0.00000000E+00  0.00000000E+00
  0.00000000E+00  0.00000000E+00  0.00000000E+00
  0.00000000E+00  0.00000000E+00  0.00000000E+00
  0.00000000E+00  0.00000000E+00  0.00000000E+00
  0.00000000E+00  0.00000000E+00  0.00000000E+00
  0.00000000E+00  0.00000000E+00  0.00000000E+00
  0.00000000E+00  0.00000000E+00  0.00000000E+00
  0.00000000E+00  0.00000000E+00  0.00000000E+00
  0.00000000E+00  0.00000000E+00  0.00000000E+00
  0.00000000E+00  0.00000000E+00  0.00000000E+00
  0.00000000E+00  0.00000000E+00  0.00000000E+00
  0.00000000E+00  0.00000000E+00  0.00000000E+00
  0.00000000E+00  0.00000000E+00  0.00000000E+00
  0.00000000E+00  0.00000000E+00  0.00000000E+00
  0.00000000E+00  0.00000000E+00  0.00000000E+00
  0.00000000E+00  0.00000000E+00  0.00000000E+00
  0.00000000E+00  0.00000000E+00  0.00000000E+00
  0.00000000E+00  0.00000000E+00  0.00000000E+00
  0.00000000E+00  0.00000000E+00  0.00000000E+00
  0.00000000E+00  0.00000000E+00  0.00000000E+00
  0.00000000E+00  0.00000000E+00  0.00000000E+00
  0.00000000E+00  0.00000000E+00  0.00000000E+00
  0.00000000E+00  0.00000000E+00  0.00000000E+00
  0.00000000E+00  0.00000000E+00  0.00000000E+00
  0.00000000E+00  0.00000000E+00  0.00000000E+00
  0.00000000E+00  0.00000000E+00  0.00000000E+00
  0.00000000E+00  0.00000000E+00  0.00000000E+00
  0.00000000E+00  0.00000000E+00  0.00000000E+00
  0.00000000E+00  0.00000000E+00  0.00000000E+00
  0.00000000E+00  0.00000000E+00  0.00000000E+00
  0.00000000E+00  0.00000000E+00  0.00000000E+00
  0.00000000E+00  0.00000000E+00  0.00000000E+00
  0.00000000E+00  0.00000000E+00  0.00000000E+00
  0.00000000E+00  0.00000000E+00  0.00000000E+00
  0.00000000E+00  0.00000000E+00  0.00000000E+00
  0.00000000E+00  0.00000000E+00  0.00000000E+00
  0.00000000E+00  0.00000000E+00  0.00000000E+00
  0.00000000E+00  0.00000000E+00  0.00000000E+00
  0.00000000E+00  0.00000000E+00  0.00000000E+00
  0.00000000E+00  0.00000000E+00  0.00000000E+00
  0.00000000E+00  0.00000000E+00  0.00000000E+00
  0.00000000E+00  0.00000000E+00  0.00000000E+00
  0.00000000E+00  0.00000000E+00  0.00000000E+00
  0.00000000E+00  0.00000000E+00  0.00000000E+00
  0.00000000E+00  0.00000000E+00  0.00000000E+00
  0.00000000E+00  0.00000000E+00  0.00000000E+00
  0.00000000E+00  0.00000000E+00  0.00000000E+00
  0.00000000E+00  0.00000000E+00  0.00000000E+00
  0.00000000E+00  0.00000000E+00  0.00000000E+00
  0.00000000E+00  0.00000000E+00  0.00000000E+00
  0.00000000E+00  0.00000000E+00  0.00000000E+00
  0.00000000E+00  0.00000000E+00  0.00000000E+00
  0.00000000E+00  0.00000000E+00  0.00000000E+00
  0.00000000E+00  0.00000000E+00  0.00000000E+00
  0.00000000E+00  0.00000000E+00  0.00000000E+00
  0.00000000E+00  0.00000000E+00  0.00000000E+00
  0.00000000E+00  0.00000000E+00  0.00000000E+00
  0.00000000E+00  0.00000000E+00  0.00000000E+00
  0.00000000E+00  0.00000000E+00  0.00000000E+00
  0.00000000E+00  0.00000000E+00  0.00000000E+00
  0.00000000E+00  0.00000000E+00  0.00000000E+00
  0.00000000E+00  0.00000000E+00  0.00000000E+00
  0.00000000E+00  0.00000000E+00  0.00000000E+00
  0.00000000E+00  0.00000000E+00  0.00000000E+00
  0.00000000E+00  0.00000000E+00  0.00000000E+00
  0.00000000E+00  0.00000000E+00  0.00000000E+00
  0.00000000E+00  0.00000000E+00  0.00000000E+00
  0.00000000E+00  0.00000000E+00  0.00000000E+00
  0.00000000E+00  0.00000000E+00  0.00000000E+00
  0.00000000E+00  0.00000000E+00  0.00000000E+00
  0.00000000E+00  0.00000000E+00  0.00000000E+00
  0.00000000E+00  0.00000000E+00  0.00000000E+00
  0.00000000E+00  0.00000000E+00  0.00000000E+00
  0.00000000E+00  0.00000000E+00  0.00000000E+00
  0.00000000E+00  0.00000000E+00  0.00000000E+00
  0.00000000E+00  0.00000000E+00  0.00000000E+00
  0.00000000E+00  0.00000000E+00  0.00000000E+00
  0.00000000E+00  0.00000000E+00  0.00000000E+00
  0.00000000E+00  0.00000000E+00  0.00000000E+00
  0.00000000E+00  0.00000000E+00  0.00000000E+00
  0.00000000E+00  0.00000000E+00  0.00000000E+00
  0.00000000E+00  0.00000000E+00  0.00000000E+00
  0.00000000E+00  0.00000000E+00  0.00000000E+00
  0.00000000E+00  0.00000000E+00  0.00000000E+00
  0.00000000E+00  0.00000000E+00  0.00000000E+00
  0.00000000E+00  0.00000000E+00  0.00000000E+00
  0.00000000E+00  0.00000000E+00  0.00000000E+00
  0.00000000E+00  0.00000000E+00  0.00000000E+00
  0.00000000E+00  0.00000000E+00  0.00000000E+00
  0.00000000E+00  0.00000000E+00  0.00000000E+00
  0.00000000E+00  0.00000000E+00  0.00000000E+00
  0.00000000E+00  0.00000000E+00  0.00000000E+00
  0.00000000E+00  0.00000000E+00  0.00000000E+00
  0.00000000E+00  0.00000000E+00  0.00000000E+00
