Si Al Si  O Cu  O  H  O  H  O  H        
   1.00000000000000     
    13.7117428102485572   -0.0007089864482829   -0.0000772515146739
    -6.8564341089479353   11.8743831809937230    0.0002001064042076
    -0.0000601617969401    0.0001113862051393   14.9361759746568339
   Si   Al   Si   O    Cu   O    H    O    H    O    H 
    29     1     6    72     1     1     1     1     2     1     2
Direct
  0.5555706062501473  0.6657425156605766  0.5610335388252033
  0.3274426456079512  0.8956006027043759  0.5615766913980642
  0.9936071813469816  0.2250652791060076  0.1066010379786198
  0.3298769789933359  0.8972031524527465  0.7697454681557193
  0.7671031581512389  0.7707569584762449  0.1032306822604687
  0.4289684594400899  0.0971169922803248  0.4324347325086820
  0.6618396049824512  0.0984646939561536  0.4341230114399574
  0.0970981328565619  0.4373441123005939  0.7695959575782089
  0.2196566414109067  0.2221728971061645  0.1095086750973784
  0.2212313510354535  0.9962481527880287  0.1039702834209862
  0.8907093615154285  0.5642600573512373  0.4348126943410101
  0.5572829671533813  0.8965268829360932  0.7696583027625389
  0.9940792806473203  0.7704383422933199  0.1026592659814164
  0.3294349569989727  0.4349005831955947  0.7714380517656561
  0.0905628684658668  0.4324847985201728  0.5650860964443880
  0.7649655947154647  0.9970502166763157  0.1023371727688303
  0.9945157698893025  0.7732445472038656  0.8923253019814906
  0.8875602096054929  0.3310075038161395  0.2284338921753833
  0.8835851088947411  0.3327343371803592  0.4372551712480987
  0.1019336994521193  0.6660770963667626  0.7703924824871379
  0.5563228846822361  0.6681702344377474  0.7687125511556548
  0.8902962264180275  0.5603414408635840  0.2278482719716849
  0.5573376005442515  0.8949126008780660  0.5603855455540178
  0.7683304313127552 -0.0000325508268239  0.8928943370795493
  0.4362872035477592  0.3315737526548716  0.2256371327170310
  0.2233532862022550  0.2280113376661930  0.8989809852662759
  0.6619238396750210  0.1013474291028383  0.2275716434394510
  0.7664133923548527  0.7707400590975662  0.8930321266423775
  0.4302524466786365  0.0994499140390704  0.2268831513880070
  0.3234391589099420  0.4278558851492549  0.5625168996475471
  0.9960573636537884  0.2282889477114162  0.8967549696156760
  0.6587098970005564  0.5577129988398903  0.2262342659476917
  0.2208560152364351  0.0012407696636209  0.8929423110547479
  0.0977132146623275  0.6629759157684798  0.5624101559200941
  0.4365619577476070  0.3313611334397564  0.4364536617912225
  0.6600038579606304  0.5640724972803589  0.4362103007475824
  0.2324860711283705  0.7665655552824431  0.7813892795386855
  0.1122947623553155  0.2353322951114706  0.1356937758620635
  0.8973416785749950  0.8038454687904756  0.1220742633722560
  0.5537506510288355  0.1156986408559696  0.4466396002375900
  0.2264411037059759  0.4614180458885206  0.7724324604389469
  0.1895325204364299  0.0929640223239955  0.1285990754777873
  0.9958353445258322  0.2591929738091119  0.0019854757913966
  0.5247549039440764  0.7666639588106173  0.7874313158723638
  0.0905452332384132  0.9042930977263950  0.8740978405270835
  0.7993133366062322  0.9011969931405350  0.8751949857444145
  0.4307146032183280  0.5637763088950327  0.5458409840168442
  0.0943804696267517  0.1967951605576588  0.8785363164688880
  0.7597710611286624  0.5289784188465225  0.2157654292404942
  0.1270080450225815  0.5640633374095254  0.5430160380285990
  0.4632022987076646  0.2297865085885089  0.2097340267034910
  0.6466476632996447  0.6534075764455076  0.4979373251673316
  0.7581062398012419  0.2319365372837099  0.2093375621262336
  0.6584567107458488  0.6851275068180640  0.8337856770271929
  0.0190538727290093  0.6889368129535404  0.8330770141144910
  0.3061236119952629  0.9789402576974026  0.8328225005834994
  0.6820874794846022  0.6647099754616723  0.1649852622070948
  0.3390711408977194  0.9998750773257984  0.5001747269498800
  0.0181094046954171  0.3363747992104214  0.8377972433141099
  0.3304985709098578  0.0153059835532837  0.1601793028523041
  0.9847521246334533  0.3495683099404244  0.5017052661329788
  0.6637166917676007  0.9819818222843976  0.8308164936504725
  0.6771630815930655  0.0164398735164040  0.1614860007072826
  0.3394937857352462  0.3302955368730481  0.4973103882239431
  0.9719933485034740  0.6621645730693975  0.1615947280513350
  0.3256956435834344  0.3095203768272364  0.1700449951898292
 -0.0059238708048272  0.6478548828323611  0.4996738604221698
  0.6481086998856452 -0.0022251780136632  0.4986824836272203
  0.9744315643394287  0.3114834269125049  0.1679057624677631
  0.4296817259042197  0.8715346512339931  0.5412761091730127
  0.7731479751882665  0.2139953517040175  0.4628846405943088
  0.8534516396058496  0.4327949266293568  0.4520528308789954
  0.8940008571100307  0.0954127533893749  0.1226535711153356
  0.2078056209664519  0.7847327634157918  0.5400207368161154
  0.7520377645271820  0.8769083124721915  0.1300312868235942
  0.4339987228043669  0.2138901207850231  0.4583437817786171
  0.0960688647717063  0.5501492606020039  0.8018851053460945
  0.1155523405377713  0.8750282318067584  0.1314132437574012
  0.4458962668822460  0.5491410317864822  0.7939586923104036
  0.8729442915837943  0.7566674864584425  0.8642378526512856
  0.5397720966337062  0.0877140511446287  0.2076171998424549
  0.1925941689077528  0.4113090608918779  0.5481481639241975
  0.2380783184469795  0.1234154212618583  0.8653882762612184
  0.8999057972651989  0.4509887991530764  0.2010308886040542
  0.5640057788677479  0.7847226513686028  0.5339652605397759
  0.3123034404043684  0.3410445970286753  0.8458992502100691
  0.6469131036214963  0.5849380298525210  0.3307373068488607
  0.5633279057345963  0.4345781777850521  0.4647981160154412
  0.3326111193550119  0.9372337738530594  0.6654456239407461
  0.8763583552972224  0.1210576864570510  0.8679610397505145
  0.5427163623471993  0.4492163029857755  0.1919626831347608
  0.7359702210215484  0.7382855769281356  0.9982917925987465
  0.3375775899529325  0.3836747656368198  0.6739885544700125
  0.3865380361068077  0.0619872427706981  0.3297076750082052
  0.0461143687478387  0.4043346018390408  0.6690975699940441
  0.2507182117939212  0.0001002497297700  0.9981393201957202
  0.9192072616195387  0.3312648158486411  0.3333873165358390
  0.5956857333297974  0.6730827521942377  0.6655318478156287
  0.7339142225824181 -0.0021288110520337  0.9974351768011878
  0.7826893469054914  0.5786159137187995  0.4567779502477696
  0.4139965663131882  0.3406928714114374  0.3312444202808855
  0.2521967275172587  0.2524244783187855  0.0047266254931114
  0.9302643976335834  0.5983506710076709  0.3310067803585229
  0.5894187775994316  0.9294830481624509  0.6649064723052164
 -0.0055119337368261  0.7412284026949395  0.9972426353211176
  0.6699772839797454  0.0665148707977997  0.3304566241387691
  0.0619765830466794  0.6603095387600721  0.6668965072621682
  0.4504413282000219  0.9110971666247408  0.7966776067513335
  0.4054580114701811  0.2831315879713018  0.6772267426842511
  0.4807922823352737  0.2074415703213225  0.7061265570269372
  0.4433016727425895  0.1282705670479616  0.6889831049137698
  0.5721788004579776  0.4112617100591767  0.6586002484713951
  0.5832728497471359  0.4256432012009527  0.5935943715654058
  0.5941984863668368  0.3537556695837963  0.6710858863495213
  0.2621014091207337  0.1548863790261774  0.6197112527808009
  0.2659365758729494  0.1954026343770176  0.5633496585324274
  0.2735350217847172  0.0927073866905972  0.6014645530480677
 
  0.00000000E+00  0.00000000E+00  0.00000000E+00
  0.00000000E+00  0.00000000E+00  0.00000000E+00
  0.00000000E+00  0.00000000E+00  0.00000000E+00
  0.00000000E+00  0.00000000E+00  0.00000000E+00
  0.00000000E+00  0.00000000E+00  0.00000000E+00
  0.00000000E+00  0.00000000E+00  0.00000000E+00
  0.00000000E+00  0.00000000E+00  0.00000000E+00
  0.00000000E+00  0.00000000E+00  0.00000000E+00
  0.00000000E+00  0.00000000E+00  0.00000000E+00
  0.00000000E+00  0.00000000E+00  0.00000000E+00
  0.00000000E+00  0.00000000E+00  0.00000000E+00
  0.00000000E+00  0.00000000E+00  0.00000000E+00
  0.00000000E+00  0.00000000E+00  0.00000000E+00
  0.00000000E+00  0.00000000E+00  0.00000000E+00
  0.00000000E+00  0.00000000E+00  0.00000000E+00
  0.00000000E+00  0.00000000E+00  0.00000000E+00
  0.00000000E+00  0.00000000E+00  0.00000000E+00
  0.00000000E+00  0.00000000E+00  0.00000000E+00
  0.00000000E+00  0.00000000E+00  0.00000000E+00
  0.00000000E+00  0.00000000E+00  0.00000000E+00
  0.00000000E+00  0.00000000E+00  0.00000000E+00
  0.00000000E+00  0.00000000E+00  0.00000000E+00
  0.00000000E+00  0.00000000E+00  0.00000000E+00
  0.00000000E+00  0.00000000E+00  0.00000000E+00
  0.00000000E+00  0.00000000E+00  0.00000000E+00
  0.00000000E+00  0.00000000E+00  0.00000000E+00
  0.00000000E+00  0.00000000E+00  0.00000000E+00
  0.00000000E+00  0.00000000E+00  0.00000000E+00
  0.00000000E+00  0.00000000E+00  0.00000000E+00
  0.00000000E+00  0.00000000E+00  0.00000000E+00
  0.00000000E+00  0.00000000E+00  0.00000000E+00
  0.00000000E+00  0.00000000E+00  0.00000000E+00
  0.00000000E+00  0.00000000E+00  0.00000000E+00
  0.00000000E+00  0.00000000E+00  0.00000000E+00
  0.00000000E+00  0.00000000E+00  0.00000000E+00
  0.00000000E+00  0.00000000E+00  0.00000000E+00
  0.00000000E+00  0.00000000E+00  0.00000000E+00
  0.00000000E+00  0.00000000E+00  0.00000000E+00
  0.00000000E+00  0.00000000E+00  0.00000000E+00
  0.00000000E+00  0.00000000E+00  0.00000000E+00
  0.00000000E+00  0.00000000E+00  0.00000000E+00
  0.00000000E+00  0.00000000E+00  0.00000000E+00
  0.00000000E+00  0.00000000E+00  0.00000000E+00
  0.00000000E+00  0.00000000E+00  0.00000000E+00
  0.00000000E+00  0.00000000E+00  0.00000000E+00
  0.00000000E+00  0.00000000E+00  0.00000000E+00
  0.00000000E+00  0.00000000E+00  0.00000000E+00
  0.00000000E+00  0.00000000E+00  0.00000000E+00
  0.00000000E+00  0.00000000E+00  0.00000000E+00
  0.00000000E+00  0.00000000E+00  0.00000000E+00
  0.00000000E+00  0.00000000E+00  0.00000000E+00
  0.00000000E+00  0.00000000E+00  0.00000000E+00
  0.00000000E+00  0.00000000E+00  0.00000000E+00
  0.00000000E+00  0.00000000E+00  0.00000000E+00
  0.00000000E+00  0.00000000E+00  0.00000000E+00
  0.00000000E+00  0.00000000E+00  0.00000000E+00
  0.00000000E+00  0.00000000E+00  0.00000000E+00
  0.00000000E+00  0.00000000E+00  0.00000000E+00
  0.00000000E+00  0.00000000E+00  0.00000000E+00
  0.00000000E+00  0.00000000E+00  0.00000000E+00
  0.00000000E+00  0.00000000E+00  0.00000000E+00
  0.00000000E+00  0.00000000E+00  0.00000000E+00
  0.00000000E+00  0.00000000E+00  0.00000000E+00
  0.00000000E+00  0.00000000E+00  0.00000000E+00
  0.00000000E+00  0.00000000E+00  0.00000000E+00
  0.00000000E+00  0.00000000E+00  0.00000000E+00
  0.00000000E+00  0.00000000E+00  0.00000000E+00
  0.00000000E+00  0.00000000E+00  0.00000000E+00
  0.00000000E+00  0.00000000E+00  0.00000000E+00
  0.00000000E+00  0.00000000E+00  0.00000000E+00
  0.00000000E+00  0.00000000E+00  0.00000000E+00
  0.00000000E+00  0.00000000E+00  0.00000000E+00
  0.00000000E+00  0.00000000E+00  0.00000000E+00
  0.00000000E+00  0.00000000E+00  0.00000000E+00
  0.00000000E+00  0.00000000E+00  0.00000000E+00
  0.00000000E+00  0.00000000E+00  0.00000000E+00
  0.00000000E+00  0.00000000E+00  0.00000000E+00
  0.00000000E+00  0.00000000E+00  0.00000000E+00
  0.00000000E+00  0.00000000E+00  0.00000000E+00
  0.00000000E+00  0.00000000E+00  0.00000000E+00
  0.00000000E+00  0.00000000E+00  0.00000000E+00
  0.00000000E+00  0.00000000E+00  0.00000000E+00
  0.00000000E+00  0.00000000E+00  0.00000000E+00
  0.00000000E+00  0.00000000E+00  0.00000000E+00
  0.00000000E+00  0.00000000E+00  0.00000000E+00
  0.00000000E+00  0.00000000E+00  0.00000000E+00
  0.00000000E+00  0.00000000E+00  0.00000000E+00
  0.00000000E+00  0.00000000E+00  0.00000000E+00
  0.00000000E+00  0.00000000E+00  0.00000000E+00
  0.00000000E+00  0.00000000E+00  0.00000000E+00
  0.00000000E+00  0.00000000E+00  0.00000000E+00
  0.00000000E+00  0.00000000E+00  0.00000000E+00
  0.00000000E+00  0.00000000E+00  0.00000000E+00
  0.00000000E+00  0.00000000E+00  0.00000000E+00
  0.00000000E+00  0.00000000E+00  0.00000000E+00
  0.00000000E+00  0.00000000E+00  0.00000000E+00
  0.00000000E+00  0.00000000E+00  0.00000000E+00
  0.00000000E+00  0.00000000E+00  0.00000000E+00
  0.00000000E+00  0.00000000E+00  0.00000000E+00
  0.00000000E+00  0.00000000E+00  0.00000000E+00
  0.00000000E+00  0.00000000E+00  0.00000000E+00
  0.00000000E+00  0.00000000E+00  0.00000000E+00
  0.00000000E+00  0.00000000E+00  0.00000000E+00
  0.00000000E+00  0.00000000E+00  0.00000000E+00
  0.00000000E+00  0.00000000E+00  0.00000000E+00
  0.00000000E+00  0.00000000E+00  0.00000000E+00
  0.00000000E+00  0.00000000E+00  0.00000000E+00
  0.00000000E+00  0.00000000E+00  0.00000000E+00
  0.00000000E+00  0.00000000E+00  0.00000000E+00
  0.00000000E+00  0.00000000E+00  0.00000000E+00
  0.00000000E+00  0.00000000E+00  0.00000000E+00
  0.00000000E+00  0.00000000E+00  0.00000000E+00
  0.00000000E+00  0.00000000E+00  0.00000000E+00
  0.00000000E+00  0.00000000E+00  0.00000000E+00
  0.00000000E+00  0.00000000E+00  0.00000000E+00
  0.00000000E+00  0.00000000E+00  0.00000000E+00
  0.00000000E+00  0.00000000E+00  0.00000000E+00
