Si Al Si  O Cu  O  H  O  H  O  H  O  H  
   1.00000000000000     
    13.7117428102485572   -0.0007089864482829   -0.0000772515146739
    -6.8564341089479353   11.8743831809937230    0.0002001064042076
    -0.0000601617969401    0.0001113862051393   14.9361759746568339
   Si   Al   Si   O    Cu   O    H    O    H    O    H    O    H    O    H 
    29     1     6    72     1     1     1     1     2     1     2     1     2     1     2
Direct
  0.5562662838445361  0.6627263586209016  0.5587000450433612
  0.3288597547865630  0.8908848746114151  0.5571228388114723
  0.9972549490276186  0.2240587941867744  0.1041787593660410
  0.3314522235987338  0.8950390418921281  0.7655714080863558
  0.7700642252688132  0.7699135656764781  0.1007340944389447
  0.4305279188618095  0.0946537739208661  0.4284814023551880
  0.6616304221126117  0.0984127733110904  0.4310071003591040
  0.0990983150365897  0.4369482500843249  0.7674345134890894
  0.2221255743478151  0.2208425794974308  0.1059101824009462
  0.2246374379092380  0.9965931596127735  0.1005670739077354
  0.8903617516634423  0.5603598801902691  0.4331625864064211
  0.5605317531359403  0.8980397962345953  0.7658277148524132
  0.9971744757043816  0.7695646324449856  0.0999080161106996
  0.3323226819468033  0.4363894284049802  0.7696854717558990
  0.0917020667729994  0.4292148203150339  0.5637811151804955
  0.7689798490271590  0.9967082155721501  0.1006924385307972
  0.9967132813377989  0.7726959793040122  0.8893904634993905
  0.8929501644982692  0.3306635874066277  0.2266579988459002
  0.8872592983718556  0.3288992998909148  0.4336037027861827
  0.1043264908706978  0.6652093760026755  0.7677381918269262
  0.5574722333574567  0.6671370408940727  0.7666813893951657
  0.8923120773747369  0.5600092199527198  0.2253031483132716
  0.5599781624266653  0.8934845971659958  0.5580895969947586
  0.7703265401852628 -0.0004208550513968  0.8902828566393388
  0.4361146478692314  0.3306970200220293  0.2238087416779776
  0.2236426960521367  0.2256194687583835  0.8942488935005070
  0.6647266879845383  0.1025785670136769  0.2235081298516677
  0.7691414710788554  0.7709630192131292  0.8900438493682544
  0.4345983463872773  0.0994463276893582  0.2225820671762277
  0.3263605367082537  0.4283775433131722  0.5610116520421753
  0.9979568449663209  0.2262603465643416  0.8933705272451977
  0.6639033004532525  0.5573872915365391  0.2235889700239506
  0.2234688239099765  0.0005999959986468  0.8889571271590337
  0.0996711685715484  0.6601009783947269  0.5593489815188728
  0.4329377650341608  0.3270223366230409  0.4312954161737365
  0.6605370496257681  0.5578770132315491  0.4338692480382189
  0.2348949636264009  0.7643605119865355  0.7807206842344666
  0.1161903904493686  0.2355959649417002  0.1338525370053243
  0.9002663369512197  0.8027196613647156  0.1193765406383915
  0.5584973289122901  0.1223233376902032  0.4458490590864025
  0.2287600045248005  0.4625540677188890  0.7696355655014294
  0.1920719577297419  0.0921676186606806  0.1272079453118554
 -0.0007977204690028  0.2552646054181855 -0.0012253647938741
  0.5299152233215495  0.7684546923997639  0.7824521161631917
  0.0916839278038850  0.9048186561105269  0.8714489982995421
  0.8022888863990387  0.9014229157634289  0.8709669956517655
  0.4290991117499267  0.5664580698134806  0.5425125951652212
  0.0932797114331764  0.1906431895167553  0.8724370975735297
  0.7620506767556968  0.5256063000795628  0.2062055602621714
  0.1280804575699656  0.5603596325878997  0.5410255909001611
  0.4642734526244803  0.2294705845513572  0.2094435197302647
  0.6448876549123259  0.6456839282904316  0.4962643181605142
  0.7633107292108157  0.2328219263293597  0.2072062133677753
  0.6623455793758585  0.6852364703510048  0.8295896778960400
  0.0213067118020182  0.6893991900133403  0.8293486742580555
  0.3072587417730869  0.9766409156544906  0.8289873985476959
  0.6845106932555870  0.6630843106415750  0.1613287871301778
  0.3433889066728340  0.9922406568764933  0.4924686942097135
  0.0215737405808300  0.3355712239450758  0.8360344096673152
  0.3345722688937535  0.0159749341952496  0.1553599478346605
  0.9862237817571675  0.3457663938417709  0.5005052981622060
  0.6651709358265744  0.9819432263061619  0.8294390990672470
  0.6816485706522746  0.0169216924573073  0.1593089273787798
  0.3421476978899681  0.3315798291368532  0.4960123708712135
  0.9762269448659666  0.6622273269322558  0.1597581273714507
  0.3315858777337339  0.3113578477915723  0.1609574688801776
 -0.0056515327391757  0.6431045765144356  0.4976550569747011
  0.6462142847925636  0.9954787727815856  0.4936946950770428
  0.9781890752051117  0.3123231804824207  0.1628942507536351
  0.4298666967283624  0.8627952140024479  0.5414453807587586
  0.7769352427042450  0.2105054245237323  0.4588528293232457
  0.8574378316007463  0.4295479901979191  0.4447035062232111
  0.8981426150265713  0.0945621558995910  0.1213900682409396
  0.2090436645944949  0.7802835876335730  0.5343958742034532
  0.7551682118707013  0.8760804897801383  0.1279278060665719
  0.4255748765456147  0.2070574964551415  0.4494070805186675
  0.0958646731161492  0.5483790827658015  0.8000877070845068
  0.1192067760681647  0.8745719676728461  0.1266846029617527
  0.4466783514600856  0.5510751200197814  0.7963841003875819
  0.8753457975189345  0.7565709466285854  0.8600358994645850
  0.5453863077565301  0.0919721043263663  0.1975749051467045
  0.1930028818979432  0.4066920682213083  0.5484758351540051
  0.2387872922501115  0.1216760147022249  0.8582123895532697
  0.9070938494440115  0.4525162035756176  0.2033840033772652
  0.5736720275398881  0.7861969119857716  0.5346773421099063
  0.3109114380612549  0.3405522999563760  0.8436870430795288
  0.6641528668690584  0.5906180274369369  0.3284963347635161
  0.5619952827044618  0.4283657291592989  0.4515536135100231
  0.3309619991221344  0.9303175791201450  0.6611224416825146
  0.8780604979354935  0.1201547398858069  0.8630459968577046
  0.5447427295078880  0.4495588197053842  0.1951010480149299
  0.7395685284536304  0.7394374378439676  0.9951891989715899
  0.3443676330469643  0.3885532642241244  0.6725718339020899
  0.3942823929400254  0.0566830460836312  0.3245989278663506
  0.0462839723181927  0.4016779984971918  0.6676847666504397
  0.2535245113052973  0.0027123063814257  0.9941748389566911
  0.9258414849361386  0.3265243697375589  0.3306253458611091
  0.5946897492068398  0.6647609253417593  0.6636937716283824
  0.7392942069590270  0.9982595955545677  0.9953400460549542
  0.7809878489208910  0.5696633603789395  0.4642683038093334
  0.4026189944979741  0.3355416751892467  0.3270255178402849
  0.2494620423133769  0.2460270199588289  0.0000262649508251
  0.9239651946894361  0.6000814085020403  0.3293758653936628
  0.5953388322287554  0.9330948215977265  0.6618471887116855
  0.9958985370971711  0.7399772369095432  0.9941040527982344
  0.6663377638861121  0.0659039397703628  0.3267478636152429
  0.0655504286249339  0.6598851990632042  0.6640892677818260
  0.4525539164719146  0.9102562041390224  0.7928047213408607
  0.4016308522182208  0.2752195630735600  0.6757712525259153
  0.4688046642803383  0.1864578474960992  0.6782096926986444
  0.4119189503707151  0.1083025418688700  0.6663594953789620
  0.5461099355614490  0.3811827390021927  0.7419784426180489
  0.6124666009856135  0.4411498065638085  0.7078436999393719
  0.5617818476207410  0.3185340918740476  0.7480008854671230
  0.7408888602484935  0.5385957724841638  0.6704000585802278
  0.7623161955330601  0.6120512601716439  0.6958993484573409
  0.7581082064143841  0.5519308110987619  0.6064523046351996
  0.2593149661358484  0.1547320404228311  0.6180719983041051
  0.2563547226564780  0.1918247520496905  0.5623749717726970
  0.1843757392805202  0.1205535412531717  0.6487042972968670
  0.0541569678261098  0.0423066390472432  0.6966310425364475
  0.9969200546916179  0.0627518916828283  0.6843693929165624
  0.0555619698351807  0.0367237903708610  0.7617541187936381
 
  0.00000000E+00  0.00000000E+00  0.00000000E+00
  0.00000000E+00  0.00000000E+00  0.00000000E+00
  0.00000000E+00  0.00000000E+00  0.00000000E+00
  0.00000000E+00  0.00000000E+00  0.00000000E+00
  0.00000000E+00  0.00000000E+00  0.00000000E+00
  0.00000000E+00  0.00000000E+00  0.00000000E+00
  0.00000000E+00  0.00000000E+00  0.00000000E+00
  0.00000000E+00  0.00000000E+00  0.00000000E+00
  0.00000000E+00  0.00000000E+00  0.00000000E+00
  0.00000000E+00  0.00000000E+00  0.00000000E+00
  0.00000000E+00  0.00000000E+00  0.00000000E+00
  0.00000000E+00  0.00000000E+00  0.00000000E+00
  0.00000000E+00  0.00000000E+00  0.00000000E+00
  0.00000000E+00  0.00000000E+00  0.00000000E+00
  0.00000000E+00  0.00000000E+00  0.00000000E+00
  0.00000000E+00  0.00000000E+00  0.00000000E+00
  0.00000000E+00  0.00000000E+00  0.00000000E+00
  0.00000000E+00  0.00000000E+00  0.00000000E+00
  0.00000000E+00  0.00000000E+00  0.00000000E+00
  0.00000000E+00  0.00000000E+00  0.00000000E+00
  0.00000000E+00  0.00000000E+00  0.00000000E+00
  0.00000000E+00  0.00000000E+00  0.00000000E+00
  0.00000000E+00  0.00000000E+00  0.00000000E+00
  0.00000000E+00  0.00000000E+00  0.00000000E+00
  0.00000000E+00  0.00000000E+00  0.00000000E+00
  0.00000000E+00  0.00000000E+00  0.00000000E+00
  0.00000000E+00  0.00000000E+00  0.00000000E+00
  0.00000000E+00  0.00000000E+00  0.00000000E+00
  0.00000000E+00  0.00000000E+00  0.00000000E+00
  0.00000000E+00  0.00000000E+00  0.00000000E+00
  0.00000000E+00  0.00000000E+00  0.00000000E+00
  0.00000000E+00  0.00000000E+00  0.00000000E+00
  0.00000000E+00  0.00000000E+00  0.00000000E+00
  0.00000000E+00  0.00000000E+00  0.00000000E+00
  0.00000000E+00  0.00000000E+00  0.00000000E+00
  0.00000000E+00  0.00000000E+00  0.00000000E+00
  0.00000000E+00  0.00000000E+00  0.00000000E+00
  0.00000000E+00  0.00000000E+00  0.00000000E+00
  0.00000000E+00  0.00000000E+00  0.00000000E+00
  0.00000000E+00  0.00000000E+00  0.00000000E+00
  0.00000000E+00  0.00000000E+00  0.00000000E+00
  0.00000000E+00  0.00000000E+00  0.00000000E+00
  0.00000000E+00  0.00000000E+00  0.00000000E+00
  0.00000000E+00  0.00000000E+00  0.00000000E+00
  0.00000000E+00  0.00000000E+00  0.00000000E+00
  0.00000000E+00  0.00000000E+00  0.00000000E+00
  0.00000000E+00  0.00000000E+00  0.00000000E+00
  0.00000000E+00  0.00000000E+00  0.00000000E+00
  0.00000000E+00  0.00000000E+00  0.00000000E+00
  0.00000000E+00  0.00000000E+00  0.00000000E+00
  0.00000000E+00  0.00000000E+00  0.00000000E+00
  0.00000000E+00  0.00000000E+00  0.00000000E+00
  0.00000000E+00  0.00000000E+00  0.00000000E+00
  0.00000000E+00  0.00000000E+00  0.00000000E+00
  0.00000000E+00  0.00000000E+00  0.00000000E+00
  0.00000000E+00  0.00000000E+00  0.00000000E+00
  0.00000000E+00  0.00000000E+00  0.00000000E+00
  0.00000000E+00  0.00000000E+00  0.00000000E+00
  0.00000000E+00  0.00000000E+00  0.00000000E+00
  0.00000000E+00  0.00000000E+00  0.00000000E+00
  0.00000000E+00  0.00000000E+00  0.00000000E+00
  0.00000000E+00  0.00000000E+00  0.00000000E+00
  0.00000000E+00  0.00000000E+00  0.00000000E+00
  0.00000000E+00  0.00000000E+00  0.00000000E+00
  0.00000000E+00  0.00000000E+00  0.00000000E+00
  0.00000000E+00  0.00000000E+00  0.00000000E+00
  0.00000000E+00  0.00000000E+00  0.00000000E+00
  0.00000000E+00  0.00000000E+00  0.00000000E+00
  0.00000000E+00  0.00000000E+00  0.00000000E+00
  0.00000000E+00  0.00000000E+00  0.00000000E+00
  0.00000000E+00  0.00000000E+00  0.00000000E+00
  0.00000000E+00  0.00000000E+00  0.00000000E+00
  0.00000000E+00  0.00000000E+00  0.00000000E+00
  0.00000000E+00  0.00000000E+00  0.00000000E+00
  0.00000000E+00  0.00000000E+00  0.00000000E+00
  0.00000000E+00  0.00000000E+00  0.00000000E+00
  0.00000000E+00  0.00000000E+00  0.00000000E+00
  0.00000000E+00  0.00000000E+00  0.00000000E+00
  0.00000000E+00  0.00000000E+00  0.00000000E+00
  0.00000000E+00  0.00000000E+00  0.00000000E+00
  0.00000000E+00  0.00000000E+00  0.00000000E+00
  0.00000000E+00  0.00000000E+00  0.00000000E+00
  0.00000000E+00  0.00000000E+00  0.00000000E+00
  0.00000000E+00  0.00000000E+00  0.00000000E+00
  0.00000000E+00  0.00000000E+00  0.00000000E+00
  0.00000000E+00  0.00000000E+00  0.00000000E+00
  0.00000000E+00  0.00000000E+00  0.00000000E+00
  0.00000000E+00  0.00000000E+00  0.00000000E+00
  0.00000000E+00  0.00000000E+00  0.00000000E+00
  0.00000000E+00  0.00000000E+00  0.00000000E+00
  0.00000000E+00  0.00000000E+00  0.00000000E+00
  0.00000000E+00  0.00000000E+00  0.00000000E+00
  0.00000000E+00  0.00000000E+00  0.00000000E+00
  0.00000000E+00  0.00000000E+00  0.00000000E+00
  0.00000000E+00  0.00000000E+00  0.00000000E+00
  0.00000000E+00  0.00000000E+00  0.00000000E+00
  0.00000000E+00  0.00000000E+00  0.00000000E+00
  0.00000000E+00  0.00000000E+00  0.00000000E+00
  0.00000000E+00  0.00000000E+00  0.00000000E+00
  0.00000000E+00  0.00000000E+00  0.00000000E+00
  0.00000000E+00  0.00000000E+00  0.00000000E+00
  0.00000000E+00  0.00000000E+00  0.00000000E+00
  0.00000000E+00  0.00000000E+00  0.00000000E+00
  0.00000000E+00  0.00000000E+00  0.00000000E+00
  0.00000000E+00  0.00000000E+00  0.00000000E+00
  0.00000000E+00  0.00000000E+00  0.00000000E+00
  0.00000000E+00  0.00000000E+00  0.00000000E+00
  0.00000000E+00  0.00000000E+00  0.00000000E+00
  0.00000000E+00  0.00000000E+00  0.00000000E+00
  0.00000000E+00  0.00000000E+00  0.00000000E+00
  0.00000000E+00  0.00000000E+00  0.00000000E+00
  0.00000000E+00  0.00000000E+00  0.00000000E+00
  0.00000000E+00  0.00000000E+00  0.00000000E+00
  0.00000000E+00  0.00000000E+00  0.00000000E+00
  0.00000000E+00  0.00000000E+00  0.00000000E+00
  0.00000000E+00  0.00000000E+00  0.00000000E+00
  0.00000000E+00  0.00000000E+00  0.00000000E+00
  0.00000000E+00  0.00000000E+00  0.00000000E+00
  0.00000000E+00  0.00000000E+00  0.00000000E+00
  0.00000000E+00  0.00000000E+00  0.00000000E+00
  0.00000000E+00  0.00000000E+00  0.00000000E+00
  0.00000000E+00  0.00000000E+00  0.00000000E+00
  0.00000000E+00  0.00000000E+00  0.00000000E+00
