Si Al Si  O Cu  O  H  O  H  O  H  O  H  
   1.00000000000000     
    13.7117428102485572   -0.0007089864482829   -0.0000772515146739
    -6.8564341089479353   11.8743831809937230    0.0002001064042076
    -0.0000601617969401    0.0001113862051393   14.9361759746568339
   Si   Al   Si   O    Cu   O    H    O    H    O    H    O    H    O    H 
    29     1     6    72     1     1     1     1     2     1     2     1     2     1     2
Direct
  0.5571337881375757  0.6645565133744277  0.5617821934215085
  0.3297409500775049  0.8934703257634277  0.5587386116439382
  0.9969843506313042  0.2251243666936947  0.1072162980669143
  0.3318130868852590  0.8983541536500911  0.7682197186004294
  0.7706323155900787  0.7716017254472101  0.1029438983252298
  0.4330979202371691  0.0975977090870422  0.4325094883119257
  0.6637198656412832  0.1006681800010829  0.4342192922627601
  0.0959752485149427  0.4372179049517690  0.7694718098319278
  0.2220624548022715  0.2227288716778175  0.1088203792986418
  0.2255069473949948  0.9982561768311990  0.1019041102735439
  0.8925388917495561  0.5634228905006835  0.4339807981923022
  0.5621503370734875  0.9034983481353029  0.7672403727136065
  0.9960882012445216  0.7709585508124975  0.1015464390431052
  0.3316724048789811  0.4402312796258448  0.7733493253570191
  0.0924385483210056  0.4309309912981655  0.5667694256657683
  0.7676170310068100  0.9975596986056533  0.1028024477412464
 -0.0035478216886024  0.7761668885630345  0.8917996551760242
  0.8912092534032672  0.3323442871775465  0.2275208872204359
  0.8866412317919793  0.3328728377961982  0.4364133293596831
  0.1061375934427424  0.6703309285198759  0.7700847893680746
  0.5571073345437859  0.6695172478155518  0.7688547438903600
  0.8943069101475821  0.5617459378284253  0.2272976603131162
  0.5617954032646438  0.8974914879100784  0.5604828166502522
  0.7696689677924120  0.0030052153029146  0.8932019319170983
  0.4373943478737781  0.3324877250508114  0.2267057071655532
  0.2244625961043800  0.2302590578295675  0.8974611223761336
  0.6640791783400585  0.1040358520390602  0.2254234404174796
  0.7685628989458452  0.7740291336403595  0.8918560470517591
  0.4339557765296889  0.0996594340309246  0.2261090854368661
  0.3276948088552908  0.4308694323251778  0.5640474113709996
  0.9982628137822041  0.2305883367015186  0.8968995144766995
  0.6624854828308506  0.5588152426646075  0.2257726460791839
  0.2247801359137148  0.0048240601834217  0.8917610371506174
  0.1026599595690048  0.6644207247949986  0.5605876504522712
  0.4379342604273231  0.3321788536622786  0.4351252416238631
  0.6617217529441831  0.5636103333033584  0.4347394750664484
  0.2359720743361013  0.7673207943133221  0.7873888354426268
  0.1151038175314623  0.2352610425448282  0.1376452459518825
  0.9006284853179884  0.8052536501576294  0.1237847138461498
  0.5598267145894535  0.1230517918890376  0.4522389532802841
  0.2251343037655077  0.4618200923629321  0.7734218798232810
  0.1923854323831944  0.0936024924279454  0.1276152807780879
  0.0006269123733553  0.2596382049222388  0.0026450983200890
  0.5343041881636371  0.7745913552347020  0.7815076628675817
  0.0930104957380183  0.9073839181111165  0.8773321763116330
  0.7997535699331257  0.9035819434262626  0.8738088253451088
  0.4304456459545188  0.5682946724762650  0.5429755073611269
  0.0959879141239610  0.1992869575194034  0.8750582233358091
  0.7639896525959009  0.5305939868341720  0.2146899147075187
  0.1303410436427428  0.5637389404497509  0.5484725713002494
  0.4632464977408197  0.2295448811316680  0.2136696501615264
  0.6465135951535668  0.6506483832739848  0.4979132588639039
  0.7620767123462588  0.2338979917673606  0.2072106010316688
  0.6604770887581134  0.6866583365320549  0.8335375488758154
  0.0205280421962506  0.6931633239665480  0.8301320742016207
  0.3068443532391825  0.9806996195152994  0.8296948115220224
  0.6841385354857339  0.6634137338182632  0.1618045565716001
  0.3431880163706956  0.9984392796854547  0.4981484014502501
  0.0175906211116607  0.3394216144521897  0.8402804234556057
  0.3323332611018803  0.0156619891744041  0.1604652304025468
  0.9890974415110436  0.3522186750386143  0.5001080164071833
  0.6658401471908357  0.9874833335579140  0.8315166104343565
  0.6809656164230014  0.0170082174299664  0.1630943140790966
  0.3457860645509644  0.3342262404161817  0.4999390016338356
  0.9762393741361391  0.6638993084253302  0.1610512742443641
  0.3302872632017124  0.3114320913856847  0.1664585672047112
 -0.0049276676104801  0.6444512092866854  0.5006469844251514
  0.6496521466696609  0.9966587009040541  0.4946350186686894
  0.9779470037993601  0.3122307768280740  0.1675176437931911
  0.4327964790229328  0.8693122964494007  0.5408497850695052
  0.7783589396663394  0.2132107236861090  0.4627280026891520
  0.8540316147380800  0.4314545892240047  0.4504320363391139
  0.8970977417834368  0.0953654703596000  0.1223526357411626
  0.2115123510267276  0.7827605946984091  0.5312129341349117
  0.7540088880350416  0.8767666311084827  0.1293978561444191
  0.4304651242309844  0.2116521463686432  0.4523024979545299
  0.0932872449901270  0.5506179394490918  0.7978221436285332
  0.1192274320135557  0.8756322484291572  0.1254146892402998
  0.4428191526956156  0.5577945443668062  0.8005523875513820
  0.8756891509480360  0.7609874361451771  0.8586883822607475
  0.5441638985832420  0.0920617857283726  0.1991755018773776
  0.1944342546657514  0.4096741413270996  0.5510955443007544
  0.2406611731228232  0.1264562462121264  0.8636107074395005
  0.9045745715021190  0.4528701499925737  0.2001792280240495
  0.5733162738681421  0.7883309704516643  0.5412939231993550
  0.3145124356585577  0.3451512099785621  0.8471574280848960
  0.6541118855474620  0.5908554517819851  0.3294760166793460
  0.5672267737152449  0.4326982249630243  0.4578922619456336
  0.3254733107296021  0.9253651046611103  0.6630466817518127
  0.8781235989945004  0.1236203218924967  0.8688742349872882
  0.5464266009848078  0.4489409923142383  0.1938315063206817
  0.7433622788913090  0.7413671560216548  0.9970777725070433
  0.3461489129401711  0.3934018904386572  0.6764040616490484
  0.3971539444569349  0.0581512758983968  0.3290498324677501
  0.0439091668343368  0.3996394303388853  0.6696526456864044
  0.2586794622028741  0.0063251984995820  0.9964089854829544
  0.9219299884501704  0.3316911407984132  0.3324403229160554
  0.5927050133379328  0.6617304639487815  0.6666266838338591
  0.7357529471325777 -0.0010727517566314 -0.0019615534079088
  0.7846565457007203  0.5777820430002483  0.4564601793135544
  0.4101156925961494  0.3428778137315260  0.3307299818916850
  0.2506821396183658  0.2518838076093211  0.0035631609923207
  0.9337638953602090  0.5991748083510140  0.3307269342276688
  0.5956704794213258  0.9412472229221004  0.6634645030989891
 -0.0106868177577543  0.7386073582779642 -0.0042867681084524
  0.6667607627408869  0.0705045212760981  0.3293334400024822
  0.0696477499930653  0.6721822435634905  0.6654863474684559
  0.4531428785047763  0.9138630317311928  0.7950310733225265
  0.4148590565057913  0.2889022159849327  0.6875734910718250
  0.4688790056633849  0.1882478133201985  0.6843395460686643
  0.5509006159126437  0.2273289459485672  0.6815844400667798
  0.5480421788358895  0.4091811661396404  0.7515200535366464
  0.6189967973970534  0.4387305138438166  0.7096069848002359
  0.5628848962654377  0.3744455335892760  0.8028000577741866
  0.7179408719942862  0.4748088538915082  0.6516971587736295
  0.7710295020549189  0.5594505355858850  0.6544382908126422
  0.7000185732683808  0.4556259975699856  0.5887325936416887
  0.2762829700904977  0.1640676057350032  0.6261894835326680
  0.2789113818747953  0.2006268740502004  0.5681230364338168
  0.3055289078419857  0.1128631930561393  0.6141072228188071
  0.8614509072189581  0.6919994042722919  0.6658509216907644
  0.8577790400037861  0.7164763983989052  0.7267596967260204
  0.9351381208064365  0.6968420115195771  0.6622768909875983
 
  0.00000000E+00  0.00000000E+00  0.00000000E+00
  0.00000000E+00  0.00000000E+00  0.00000000E+00
  0.00000000E+00  0.00000000E+00  0.00000000E+00
  0.00000000E+00  0.00000000E+00  0.00000000E+00
  0.00000000E+00  0.00000000E+00  0.00000000E+00
  0.00000000E+00  0.00000000E+00  0.00000000E+00
  0.00000000E+00  0.00000000E+00  0.00000000E+00
  0.00000000E+00  0.00000000E+00  0.00000000E+00
  0.00000000E+00  0.00000000E+00  0.00000000E+00
  0.00000000E+00  0.00000000E+00  0.00000000E+00
  0.00000000E+00  0.00000000E+00  0.00000000E+00
  0.00000000E+00  0.00000000E+00  0.00000000E+00
  0.00000000E+00  0.00000000E+00  0.00000000E+00
  0.00000000E+00  0.00000000E+00  0.00000000E+00
  0.00000000E+00  0.00000000E+00  0.00000000E+00
  0.00000000E+00  0.00000000E+00  0.00000000E+00
  0.00000000E+00  0.00000000E+00  0.00000000E+00
  0.00000000E+00  0.00000000E+00  0.00000000E+00
  0.00000000E+00  0.00000000E+00  0.00000000E+00
  0.00000000E+00  0.00000000E+00  0.00000000E+00
  0.00000000E+00  0.00000000E+00  0.00000000E+00
  0.00000000E+00  0.00000000E+00  0.00000000E+00
  0.00000000E+00  0.00000000E+00  0.00000000E+00
  0.00000000E+00  0.00000000E+00  0.00000000E+00
  0.00000000E+00  0.00000000E+00  0.00000000E+00
  0.00000000E+00  0.00000000E+00  0.00000000E+00
  0.00000000E+00  0.00000000E+00  0.00000000E+00
  0.00000000E+00  0.00000000E+00  0.00000000E+00
  0.00000000E+00  0.00000000E+00  0.00000000E+00
  0.00000000E+00  0.00000000E+00  0.00000000E+00
  0.00000000E+00  0.00000000E+00  0.00000000E+00
  0.00000000E+00  0.00000000E+00  0.00000000E+00
  0.00000000E+00  0.00000000E+00  0.00000000E+00
  0.00000000E+00  0.00000000E+00  0.00000000E+00
  0.00000000E+00  0.00000000E+00  0.00000000E+00
  0.00000000E+00  0.00000000E+00  0.00000000E+00
  0.00000000E+00  0.00000000E+00  0.00000000E+00
  0.00000000E+00  0.00000000E+00  0.00000000E+00
  0.00000000E+00  0.00000000E+00  0.00000000E+00
  0.00000000E+00  0.00000000E+00  0.00000000E+00
  0.00000000E+00  0.00000000E+00  0.00000000E+00
  0.00000000E+00  0.00000000E+00  0.00000000E+00
  0.00000000E+00  0.00000000E+00  0.00000000E+00
  0.00000000E+00  0.00000000E+00  0.00000000E+00
  0.00000000E+00  0.00000000E+00  0.00000000E+00
  0.00000000E+00  0.00000000E+00  0.00000000E+00
  0.00000000E+00  0.00000000E+00  0.00000000E+00
  0.00000000E+00  0.00000000E+00  0.00000000E+00
  0.00000000E+00  0.00000000E+00  0.00000000E+00
  0.00000000E+00  0.00000000E+00  0.00000000E+00
  0.00000000E+00  0.00000000E+00  0.00000000E+00
  0.00000000E+00  0.00000000E+00  0.00000000E+00
  0.00000000E+00  0.00000000E+00  0.00000000E+00
  0.00000000E+00  0.00000000E+00  0.00000000E+00
  0.00000000E+00  0.00000000E+00  0.00000000E+00
  0.00000000E+00  0.00000000E+00  0.00000000E+00
  0.00000000E+00  0.00000000E+00  0.00000000E+00
  0.00000000E+00  0.00000000E+00  0.00000000E+00
  0.00000000E+00  0.00000000E+00  0.00000000E+00
  0.00000000E+00  0.00000000E+00  0.00000000E+00
  0.00000000E+00  0.00000000E+00  0.00000000E+00
  0.00000000E+00  0.00000000E+00  0.00000000E+00
  0.00000000E+00  0.00000000E+00  0.00000000E+00
  0.00000000E+00  0.00000000E+00  0.00000000E+00
  0.00000000E+00  0.00000000E+00  0.00000000E+00
  0.00000000E+00  0.00000000E+00  0.00000000E+00
  0.00000000E+00  0.00000000E+00  0.00000000E+00
  0.00000000E+00  0.00000000E+00  0.00000000E+00
  0.00000000E+00  0.00000000E+00  0.00000000E+00
  0.00000000E+00  0.00000000E+00  0.00000000E+00
  0.00000000E+00  0.00000000E+00  0.00000000E+00
  0.00000000E+00  0.00000000E+00  0.00000000E+00
  0.00000000E+00  0.00000000E+00  0.00000000E+00
  0.00000000E+00  0.00000000E+00  0.00000000E+00
  0.00000000E+00  0.00000000E+00  0.00000000E+00
  0.00000000E+00  0.00000000E+00  0.00000000E+00
  0.00000000E+00  0.00000000E+00  0.00000000E+00
  0.00000000E+00  0.00000000E+00  0.00000000E+00
  0.00000000E+00  0.00000000E+00  0.00000000E+00
  0.00000000E+00  0.00000000E+00  0.00000000E+00
  0.00000000E+00  0.00000000E+00  0.00000000E+00
  0.00000000E+00  0.00000000E+00  0.00000000E+00
  0.00000000E+00  0.00000000E+00  0.00000000E+00
  0.00000000E+00  0.00000000E+00  0.00000000E+00
  0.00000000E+00  0.00000000E+00  0.00000000E+00
  0.00000000E+00  0.00000000E+00  0.00000000E+00
  0.00000000E+00  0.00000000E+00  0.00000000E+00
  0.00000000E+00  0.00000000E+00  0.00000000E+00
  0.00000000E+00  0.00000000E+00  0.00000000E+00
  0.00000000E+00  0.00000000E+00  0.00000000E+00
  0.00000000E+00  0.00000000E+00  0.00000000E+00
  0.00000000E+00  0.00000000E+00  0.00000000E+00
  0.00000000E+00  0.00000000E+00  0.00000000E+00
  0.00000000E+00  0.00000000E+00  0.00000000E+00
  0.00000000E+00  0.00000000E+00  0.00000000E+00
  0.00000000E+00  0.00000000E+00  0.00000000E+00
  0.00000000E+00  0.00000000E+00  0.00000000E+00
  0.00000000E+00  0.00000000E+00  0.00000000E+00
  0.00000000E+00  0.00000000E+00  0.00000000E+00
  0.00000000E+00  0.00000000E+00  0.00000000E+00
  0.00000000E+00  0.00000000E+00  0.00000000E+00
  0.00000000E+00  0.00000000E+00  0.00000000E+00
  0.00000000E+00  0.00000000E+00  0.00000000E+00
  0.00000000E+00  0.00000000E+00  0.00000000E+00
  0.00000000E+00  0.00000000E+00  0.00000000E+00
  0.00000000E+00  0.00000000E+00  0.00000000E+00
  0.00000000E+00  0.00000000E+00  0.00000000E+00
  0.00000000E+00  0.00000000E+00  0.00000000E+00
  0.00000000E+00  0.00000000E+00  0.00000000E+00
  0.00000000E+00  0.00000000E+00  0.00000000E+00
  0.00000000E+00  0.00000000E+00  0.00000000E+00
  0.00000000E+00  0.00000000E+00  0.00000000E+00
  0.00000000E+00  0.00000000E+00  0.00000000E+00
  0.00000000E+00  0.00000000E+00  0.00000000E+00
  0.00000000E+00  0.00000000E+00  0.00000000E+00
  0.00000000E+00  0.00000000E+00  0.00000000E+00
  0.00000000E+00  0.00000000E+00  0.00000000E+00
  0.00000000E+00  0.00000000E+00  0.00000000E+00
  0.00000000E+00  0.00000000E+00  0.00000000E+00
  0.00000000E+00  0.00000000E+00  0.00000000E+00
  0.00000000E+00  0.00000000E+00  0.00000000E+00
  0.00000000E+00  0.00000000E+00  0.00000000E+00
  0.00000000E+00  0.00000000E+00  0.00000000E+00
