Si Al Si  O Cu  O  H  O  H  O  H  O  H  
   1.00000000000000     
    13.7117428102485572   -0.0007089864482829   -0.0000772515146739
    -6.8564341089479353   11.8743831809937230    0.0002001064042076
    -0.0000601617969401    0.0001113862051393   14.9361759746568339
   Si   Al   Si   O    Cu   O    H    O    H    O    H    O    H 
    29     1     6    72     1     1     1     1     2     1     2     1     2
Direct
  0.5541063642568477  0.6622055029665668  0.5605692268267005
  0.3266890124632337  0.8894589060170071  0.5581323041146780
  0.9949277700483673  0.2236024773225520  0.1064006671320506
  0.3289175501108471  0.8955962036473187  0.7678263778737786
  0.7678429078818572  0.7691351198780650  0.1023077050155183
  0.4283486997263847  0.0939872183801079  0.4314328167478451
  0.6613753234657103  0.0973168134437038  0.4333839733122299
  0.0961587551861767  0.4357650458663822  0.7693058945410323
  0.2204510679587075  0.2209373060183746  0.1074796775457360
  0.2230176026063576  0.9956610807809029  0.1013315855622906
  0.8896600765664932  0.5611450071071161  0.4356676163465673
  0.5587656489840691  0.8988061444134329  0.7677676122400207
  0.9948063156515483  0.7683144349751120  0.1010728485528832
  0.3305826464548726  0.4363841681074381  0.7721731402730300
  0.0892949901276850  0.4275447201137868  0.5658054152361884
  0.7664369018038831  0.9957599919804634  0.1025093517850537
  0.9942885349412897  0.7710447612522654  0.8910276955920896
  0.8895063277891406  0.3294823713231971  0.2286661675958631
  0.8846062921548751  0.3286525654982071  0.4365685405963763
  0.1035200352149879  0.6661440859862751  0.7703370369499299
  0.5550263201454559  0.6668396663850801  0.7689726940444128
  0.8906176972665759  0.5596894975041162  0.2274783940367016
  0.5597770068388449  0.8944636550621021  0.5601037731448033
  0.7679744409858407 -0.0003125739744138  0.8926027216544148
  0.4347766242755338  0.3288362101323966  0.2257441240459246
  0.2217798425649601  0.2260794464460775  0.8965491754821548
  0.6631206986687940  0.1018000445302940  0.2259361448698308
  0.7669697754344411  0.7709057392634042  0.8918827850704455
  0.4316990705034444  0.0987092948082189  0.2248428030940276
  0.3249947303407802  0.4285241539028308  0.5623730110335247
  0.9957711514476114  0.2272027819352933  0.8961834134383765
  0.6619514956401393  0.5571672187378515  0.2258404909619625
  0.2220716547282082  0.0005725256187214  0.8907176639511389
  0.0998858749798911  0.6602743101704186  0.5602250223575608
  0.4337945099973917  0.3269283641414432  0.4348342938745806
  0.6600787893758931  0.5595475047939662  0.4361256841453925
  0.2323774853159698  0.7659453182136368  0.7886901119625266
  0.1136850775408104  0.2342568951290439  0.1358024910491124
  0.8978981921071120  0.8014624022178227  0.1208552009360081
  0.5542702038303597  0.1156742813414902  0.4479669644649428
  0.2254030256615528  0.4597677182291928  0.7714170746864552
  0.1908493097379787  0.0918711992452407  0.1268359354850797
  0.9968950821158448  0.2569593485215897  0.0017286334444056
  0.5287013184763489  0.7691628015157558  0.7834961793661012
  0.0916171711301478  0.9018783925487375  0.8743760463797254
  0.7985234708568811  0.9007071388686105  0.8733208189356776
  0.4276789430785741  0.5660338866021888  0.5413008273923096
  0.0927730434288044  0.1945387711646214  0.8758802910500959
  0.7601295571948979  0.5252473199906631  0.2089223467726689
  0.1250287662792672  0.5584111636416790  0.5423920415717335
  0.4644594431319497  0.2291208088229833  0.2081718598876635
  0.6444117637964412  0.6470692157355733  0.4986255550198828
  0.7596309021080881  0.2324739067345083  0.2078823522755366
  0.6602829063275520  0.6847723723372671  0.8311743978044638
  0.0158408322443664  0.6863332931005061  0.8296362155028446
  0.3073557537344133  0.9806365435420779  0.8288757423356867
  0.6822605319937137  0.6622884728818672  0.1631677069253716
  0.3394273712554292  0.9940826525427007  0.4969778350334140
  0.0178614590985278  0.3363267455316616  0.8388602933481606
  0.3312394296645926  0.0140913997966273  0.1587448261683411
  0.9843739871974025  0.3442345048590497  0.5018946453327560
  0.6628942277572514  0.9826474828763384  0.8316466719322885
  0.6792244637037146  0.0158802478603991  0.1616820638040262
  0.3417399379431541  0.3308332504888954  0.4985672510811858
  0.9745259206187541  0.6619588791682957  0.1621611513310838
  0.3286084582729221  0.3096237183352289  0.1653067248261629
 -0.0067488728214719  0.6439747918447919  0.5003759740757581
  0.6483301238017969  0.9952448852663128  0.4957715337426761
  0.9756319078397329  0.3106841267547005  0.1666972337484454
  0.4312049977476008  0.8673688646001314  0.5406488463935393
  0.7727051689276283  0.2120229310798181  0.4634359220741788
  0.8564728147913523  0.4304487810026629  0.4484213714830323
  0.8955683694750933  0.0939111668354615  0.1228831026435323
  0.2095451836336938  0.7782791751610553  0.5304652021495442
  0.7531856788717345  0.8753359320873200  0.1300155984358111
  0.4303729631559708  0.2091106449092341  0.4584467651645301
  0.0949621798186417  0.5486963680571139  0.8005606465390426
  0.1168443290360942  0.8738573140187257  0.1270808830862770
  0.4437009843839522  0.5518690454763379  0.7999751105145280
  0.8735088121361919  0.7570176569151491  0.8620440330747251
  0.5413274404049113  0.0877013560095443  0.2037578355232232
  0.1915484797989055  0.4063490638136586  0.5506997120529792
  0.2367465907773320  0.1217265244568600  0.8629048630779856
  0.9049093672784373  0.4518857319465495  0.2055764090015628
  0.5712480490590603  0.7857337702668560  0.5380221578472780
  0.3109957529912719  0.3395440022967954  0.8443675818081052
  0.6625868052503771  0.5910393268861620  0.3307736075298127
  0.5620717274805866  0.4297239686968888  0.4546293213113651
  0.3226021269651302  0.9222948254769910  0.6622531248368001
  0.8754528098737776  0.1208377192430232  0.8674547016537643
  0.5423106734501218  0.4490546619872886  0.1984819632320491
  0.7367755805403831  0.7382604922092302  0.9969681461945183
  0.3465149032077373  0.3918958685558883  0.6743074887011471
  0.3896607689462470  0.0608506814173240  0.3278165173141563
  0.0434979393171213  0.4004838250680539  0.6694450628750518
  0.2543165838107527  0.0014690298912537  0.9957078347458740
  0.9199770681736644  0.3242550512848968  0.3331169271344827
  0.5900259035380969  0.6614106715767517  0.6657269180910445
  0.7351470514539592  0.9964793456851891  0.9976074425427925
  0.7805189113002301  0.5713058241840803  0.4665548587505953
  0.4026758103847071  0.3292303149399705  0.3301828313361779
  0.2499060491262546  0.2499039033284987  0.0023136785256622
  0.9225640430233923  0.5996061577530030  0.3316668748918983
  0.5933096631576714  0.9344588144793834  0.6637090238047737
  0.9920242494920138  0.7365477118128373  0.9956819958472233
  0.6694140927907350  0.0676146843825239  0.3292407626920741
  0.0706703905350838  0.6650655754480683  0.6653479630174731
  0.4503658835394059  0.9106410619001785  0.7937281985056214
  0.4128121296529020  0.2877520696230938  0.6787938341954280
  0.4738353996955884  0.1906116794109647  0.6821893034344509
  0.5161049017524084  0.1997938249614055  0.6270787014632248
  0.5559621542111746  0.3927574495232894  0.7422770175577516
  0.6218869259583693  0.4532709346509421  0.7074570381779907
  0.5714743949901838  0.3294155306591776  0.7463784681480162
  0.7466919247031253  0.5472964367760702  0.6678117727899046
  0.7684193783507051  0.6203219786165056  0.6943603376516742
  0.7619951612950411  0.5612418498594743  0.6035794264931036
  0.2686753676307307  0.1616745029254418  0.6260044524727431
  0.2691844419193019  0.1941969120835189  0.5664945491176674
  0.2904936398141625  0.1042667146206407  0.6161956592026736
 
  0.00000000E+00  0.00000000E+00  0.00000000E+00
  0.00000000E+00  0.00000000E+00  0.00000000E+00
  0.00000000E+00  0.00000000E+00  0.00000000E+00
  0.00000000E+00  0.00000000E+00  0.00000000E+00
  0.00000000E+00  0.00000000E+00  0.00000000E+00
  0.00000000E+00  0.00000000E+00  0.00000000E+00
  0.00000000E+00  0.00000000E+00  0.00000000E+00
  0.00000000E+00  0.00000000E+00  0.00000000E+00
  0.00000000E+00  0.00000000E+00  0.00000000E+00
  0.00000000E+00  0.00000000E+00  0.00000000E+00
  0.00000000E+00  0.00000000E+00  0.00000000E+00
  0.00000000E+00  0.00000000E+00  0.00000000E+00
  0.00000000E+00  0.00000000E+00  0.00000000E+00
  0.00000000E+00  0.00000000E+00  0.00000000E+00
  0.00000000E+00  0.00000000E+00  0.00000000E+00
  0.00000000E+00  0.00000000E+00  0.00000000E+00
  0.00000000E+00  0.00000000E+00  0.00000000E+00
  0.00000000E+00  0.00000000E+00  0.00000000E+00
  0.00000000E+00  0.00000000E+00  0.00000000E+00
  0.00000000E+00  0.00000000E+00  0.00000000E+00
  0.00000000E+00  0.00000000E+00  0.00000000E+00
  0.00000000E+00  0.00000000E+00  0.00000000E+00
  0.00000000E+00  0.00000000E+00  0.00000000E+00
  0.00000000E+00  0.00000000E+00  0.00000000E+00
  0.00000000E+00  0.00000000E+00  0.00000000E+00
  0.00000000E+00  0.00000000E+00  0.00000000E+00
  0.00000000E+00  0.00000000E+00  0.00000000E+00
  0.00000000E+00  0.00000000E+00  0.00000000E+00
  0.00000000E+00  0.00000000E+00  0.00000000E+00
  0.00000000E+00  0.00000000E+00  0.00000000E+00
  0.00000000E+00  0.00000000E+00  0.00000000E+00
  0.00000000E+00  0.00000000E+00  0.00000000E+00
  0.00000000E+00  0.00000000E+00  0.00000000E+00
  0.00000000E+00  0.00000000E+00  0.00000000E+00
  0.00000000E+00  0.00000000E+00  0.00000000E+00
  0.00000000E+00  0.00000000E+00  0.00000000E+00
  0.00000000E+00  0.00000000E+00  0.00000000E+00
  0.00000000E+00  0.00000000E+00  0.00000000E+00
  0.00000000E+00  0.00000000E+00  0.00000000E+00
  0.00000000E+00  0.00000000E+00  0.00000000E+00
  0.00000000E+00  0.00000000E+00  0.00000000E+00
  0.00000000E+00  0.00000000E+00  0.00000000E+00
  0.00000000E+00  0.00000000E+00  0.00000000E+00
  0.00000000E+00  0.00000000E+00  0.00000000E+00
  0.00000000E+00  0.00000000E+00  0.00000000E+00
  0.00000000E+00  0.00000000E+00  0.00000000E+00
  0.00000000E+00  0.00000000E+00  0.00000000E+00
  0.00000000E+00  0.00000000E+00  0.00000000E+00
  0.00000000E+00  0.00000000E+00  0.00000000E+00
  0.00000000E+00  0.00000000E+00  0.00000000E+00
  0.00000000E+00  0.00000000E+00  0.00000000E+00
  0.00000000E+00  0.00000000E+00  0.00000000E+00
  0.00000000E+00  0.00000000E+00  0.00000000E+00
  0.00000000E+00  0.00000000E+00  0.00000000E+00
  0.00000000E+00  0.00000000E+00  0.00000000E+00
  0.00000000E+00  0.00000000E+00  0.00000000E+00
  0.00000000E+00  0.00000000E+00  0.00000000E+00
  0.00000000E+00  0.00000000E+00  0.00000000E+00
  0.00000000E+00  0.00000000E+00  0.00000000E+00
  0.00000000E+00  0.00000000E+00  0.00000000E+00
  0.00000000E+00  0.00000000E+00  0.00000000E+00
  0.00000000E+00  0.00000000E+00  0.00000000E+00
  0.00000000E+00  0.00000000E+00  0.00000000E+00
  0.00000000E+00  0.00000000E+00  0.00000000E+00
  0.00000000E+00  0.00000000E+00  0.00000000E+00
  0.00000000E+00  0.00000000E+00  0.00000000E+00
  0.00000000E+00  0.00000000E+00  0.00000000E+00
  0.00000000E+00  0.00000000E+00  0.00000000E+00
  0.00000000E+00  0.00000000E+00  0.00000000E+00
  0.00000000E+00  0.00000000E+00  0.00000000E+00
  0.00000000E+00  0.00000000E+00  0.00000000E+00
  0.00000000E+00  0.00000000E+00  0.00000000E+00
  0.00000000E+00  0.00000000E+00  0.00000000E+00
  0.00000000E+00  0.00000000E+00  0.00000000E+00
  0.00000000E+00  0.00000000E+00  0.00000000E+00
  0.00000000E+00  0.00000000E+00  0.00000000E+00
  0.00000000E+00  0.00000000E+00  0.00000000E+00
  0.00000000E+00  0.00000000E+00  0.00000000E+00
  0.00000000E+00  0.00000000E+00  0.00000000E+00
  0.00000000E+00  0.00000000E+00  0.00000000E+00
  0.00000000E+00  0.00000000E+00  0.00000000E+00
  0.00000000E+00  0.00000000E+00  0.00000000E+00
  0.00000000E+00  0.00000000E+00  0.00000000E+00
  0.00000000E+00  0.00000000E+00  0.00000000E+00
  0.00000000E+00  0.00000000E+00  0.00000000E+00
  0.00000000E+00  0.00000000E+00  0.00000000E+00
  0.00000000E+00  0.00000000E+00  0.00000000E+00
  0.00000000E+00  0.00000000E+00  0.00000000E+00
  0.00000000E+00  0.00000000E+00  0.00000000E+00
  0.00000000E+00  0.00000000E+00  0.00000000E+00
  0.00000000E+00  0.00000000E+00  0.00000000E+00
  0.00000000E+00  0.00000000E+00  0.00000000E+00
  0.00000000E+00  0.00000000E+00  0.00000000E+00
  0.00000000E+00  0.00000000E+00  0.00000000E+00
  0.00000000E+00  0.00000000E+00  0.00000000E+00
  0.00000000E+00  0.00000000E+00  0.00000000E+00
  0.00000000E+00  0.00000000E+00  0.00000000E+00
  0.00000000E+00  0.00000000E+00  0.00000000E+00
  0.00000000E+00  0.00000000E+00  0.00000000E+00
  0.00000000E+00  0.00000000E+00  0.00000000E+00
  0.00000000E+00  0.00000000E+00  0.00000000E+00
  0.00000000E+00  0.00000000E+00  0.00000000E+00
  0.00000000E+00  0.00000000E+00  0.00000000E+00
  0.00000000E+00  0.00000000E+00  0.00000000E+00
  0.00000000E+00  0.00000000E+00  0.00000000E+00
  0.00000000E+00  0.00000000E+00  0.00000000E+00
  0.00000000E+00  0.00000000E+00  0.00000000E+00
  0.00000000E+00  0.00000000E+00  0.00000000E+00
  0.00000000E+00  0.00000000E+00  0.00000000E+00
  0.00000000E+00  0.00000000E+00  0.00000000E+00
  0.00000000E+00  0.00000000E+00  0.00000000E+00
  0.00000000E+00  0.00000000E+00  0.00000000E+00
  0.00000000E+00  0.00000000E+00  0.00000000E+00
  0.00000000E+00  0.00000000E+00  0.00000000E+00
  0.00000000E+00  0.00000000E+00  0.00000000E+00
  0.00000000E+00  0.00000000E+00  0.00000000E+00
  0.00000000E+00  0.00000000E+00  0.00000000E+00
  0.00000000E+00  0.00000000E+00  0.00000000E+00
  0.00000000E+00  0.00000000E+00  0.00000000E+00
  0.00000000E+00  0.00000000E+00  0.00000000E+00
