Si Al Si  O Cu  O  H  O  H  O  H  O  H  
   1.00000000000000     
    13.7117428102485572   -0.0007089864482829   -0.0000772515146739
    -6.8564341089479353   11.8743831809937230    0.0002001064042076
    -0.0000601617969401    0.0001113862051393   14.9361759746568339
   Si   Al   Si   O    Cu   O    H    O    H    O    H    O    H 
    29     1     6    72     1     1     1     1     2     1     2     1     2
Direct
  0.5571020555155909  0.6632199625455207  0.5598185884914382
  0.3303240196014133  0.8914634819471194  0.5576270019321522
  0.9958546983913389  0.2239562628363984  0.1039246445955224
  0.3316340616629260  0.8946196801045224  0.7660490957731537
  0.7698219603701466  0.7699050864346576  0.1011213065338317
  0.4299541740615162  0.0951881480598552  0.4285481303347549
  0.6625193636644888  0.0980346862013196  0.4301686919472469
  0.0970499237363985  0.4363034909988423  0.7670769534078412
  0.2223590486443265  0.2213548233083779  0.1062071341342652
  0.2232277851767180  0.9955045642031707  0.1008724135840250
  0.8923174423531214  0.5630812999158595  0.4311115949162482
  0.5596900187613268  0.8978661400004343  0.7658553716945655
  0.9968158596966379  0.7701988505645561  0.0999764188828924
  0.3297694437134328  0.4364651933529291  0.7698228484879908
  0.0909663555901123  0.4299804572879999  0.5624249803190464
  0.7680052309227205  0.9956830267082374  0.1004740708143107
  0.9962915333119173  0.7742076497369157  0.8884314771196700
  0.8899085141666975  0.3301234715624792  0.2253677872988710
  0.8848592710554877  0.3313853754694003  0.4339167516999748
  0.1032165591984761  0.6651683808893396  0.7667985616592417
  0.5570675751237737  0.6654864329169680  0.7660206077571741
  0.8925158962092126  0.5592613579353064  0.2240298846427107
  0.5608327913321632  0.8952927870494840  0.5592953713734906
  0.7703043540535588 -0.0011100951929020  0.8903469807859780
  0.4374216692698589  0.3300982712490171  0.2239035483065108
  0.2242068684115797  0.2268005555312380  0.8959301643535703
  0.6638888554411204  0.1006270386179923  0.2238479344026716
  0.7685166936831345  0.7708662283078087  0.8899923513837688
  0.4328342962133273  0.0986122665083424  0.2231361616624118
  0.3256255892123704  0.4303763041089670  0.5593379238572798
  0.9969430396327402  0.2268027682379402  0.8943694601496136
  0.6612402822480947  0.5570377616367796  0.2236894578105478
  0.2226579743090482  0.0006274109477957  0.8889506203293041
  0.0991711094653775  0.6612289889358740  0.5590303315534118
  0.4372371488392816  0.3291159949879549  0.4336911291626885
  0.6610970741950808  0.5604774869113193  0.4327205177040670
  0.2343052293331297  0.7635220265278385  0.7783111288091487
  0.1152561536318454  0.2351783917744228  0.1317556979267390
  0.8998974899056345  0.8028484149895230  0.1205379287800095
  0.5573236460095555  0.1194686705832564  0.4418097884651082
  0.2272647235955603  0.4636498828222319  0.7712825462232535
  0.1912809579283950  0.0918809355233527  0.1258310033745501
 -0.0037072757923042  0.2576558290862591 -0.0005847791702737
  0.5295670176029347  0.7675938761103562  0.7765997742333275
  0.0900529943466370  0.9069397806096833  0.8677217324845183
  0.8029850278584415  0.9014438440757196  0.8703074101924632
  0.4291217944481108  0.5689270627232138  0.5430411929142063
  0.0941979104641756  0.1933341585234975  0.8775270727326226
  0.7621473673783026  0.5281520792457338  0.2117306980940327
  0.1275380167586006  0.5615076076296622  0.5409172148457208
  0.4653411964998970  0.2290177267908350  0.2073476655552167
  0.6450051972119561  0.6473857894910181  0.4959025837772368
  0.7606445096374216  0.2311020299871689  0.2059732982616297
  0.6592690148025337  0.6850668591170090  0.8322427361946877
  0.0221438040689044  0.6911471168715858  0.8293672696949022
  0.3052274693102060  0.9748313174275987  0.8292107327300209
  0.6833514517802945  0.6622668748673497  0.1604002455130472
  0.3443485368405213  0.9935253861127147  0.4938470222672062
  0.0197255889861848  0.3348656429473862  0.8353848060439986
  0.3338842369437872  0.0155497615552757  0.1549907666900154
  0.9850856934230646  0.3475456375845736  0.4991470621923965
  0.6642904031515817  0.9797384299426283  0.8299320797953114
  0.6799028352151708  0.0155875578952731  0.1584102369351487
  0.3452882991359691  0.3346296816182376  0.4963110828152791
  0.9742300059863503  0.6603832278224911  0.1567948085266000
  0.3289605968536503  0.3091282294186536  0.1654552800759944
 -0.0041380374417142  0.6463013928578485  0.4960169160361043
  0.6473293630162626  0.9961325341752759  0.4940932305734224
  0.9769798213730790  0.3103545349915912  0.1652966877720679
  0.4305415984139892  0.8626758349011185  0.5397318000050817
  0.7753201540856541  0.2120901393578870  0.4591236748837026
  0.8548202461644900  0.4315293799120110  0.4480757828028719
  0.8971103379920340  0.0940398413979193  0.1205680840098300
  0.2096284827945030  0.7816615501884170  0.5361867347351432
  0.7546781634272712  0.8756307719885768  0.1290804088055463
  0.4294248470862305  0.2090286441964275  0.4540755141551347
  0.0927382457430539  0.5475245538346997  0.7990784356589241
  0.1183407303973312  0.8741284937011903  0.1292274273057493
  0.4453034799830667  0.5501627084269559  0.7958674141769926
  0.8745041287564643  0.7564489464856702  0.8590659091537819
  0.5424496537058663  0.0875158113249068  0.2021408296545713
  0.1924360231584572  0.4081726223769179  0.5449795108530027
  0.2395020389729760  0.1226571503337950  0.8605248776181760
  0.9023671313234075  0.4500083416222849  0.1973973820694338
  0.5769456013838837  0.7885209347967849  0.5404623196164620
  0.3107249079544409  0.3398124793413845  0.8422213114296332
  0.6530177366525862  0.5882609206814524  0.3276332765824720
  0.5661537917830131  0.4303658091842824  0.4559494762400743
  0.3356218909170604  0.9323587828286974  0.6616033143897714
  0.8770725406797167  0.1203514775603955  0.8649845250743604
  0.5445757777875482  0.4481091144435808  0.1916431300375861
  0.7410019375052467  0.7403667939536431  0.9954275075313099
  0.3393482174891651  0.3886523191310965  0.6717160833723217
  0.3888718339276372  0.0591189278149965  0.3252870443330516
  0.0467095284188359  0.4017964797281369  0.6665892484802897
  0.2492843995344635 -0.0024038003703489  0.9942033428105371
  0.9216157240044572  0.3306573433295529  0.3302376440489421
  0.5949653170813365  0.6580418367490157  0.6639834034924359
  0.7374310685657260  0.9950406023274896  0.9952478807368058
  0.7852120919351061  0.5784083007205507  0.4541160289190223
  0.4102383138775018  0.3366175868092753  0.3285205172562533
  0.2548304738592299  0.2500713738388052  0.0011857487418561
  0.9322202504390588  0.5975531233211682  0.3272379996738333
  0.5933492680555251  0.9383855528875040  0.6625389219463677
  0.9980321374325370  0.7449758603580282  0.9934546298100483
  0.6707083819563148  0.0652661373803358  0.3267036224935618
  0.0629039962047145  0.6598286253146705  0.6634996119323008
  0.4512637602284045  0.9080295020236601  0.7959695921875770
  0.3940592375232009  0.2765790078753948  0.6743378486317566
  0.4651174295422036  0.1936112365234474  0.6909113904999228
  0.4229991464323505  0.1192690447639836  0.6635398570577433
  0.5588673348487834  0.4022071751774302  0.7048565375808269
  0.5987442930853358  0.4611419918430184  0.6602545600204236
  0.5811928718164143  0.3441436934606277  0.6969753265052225
  0.2524229178049791  0.1499456108416645  0.6202850293954054
  0.2421592369154974  0.1821299777649655  0.5647777066258322
  0.1788851427444241  0.1094895157468289  0.6533533504568889
  0.0545347050510523  0.0306061928262224  0.7068137239027548
  0.9894432321127029 -0.0251876914847331  0.6735777883089090
  0.0551151747737447  0.9937779894492857  0.7628373981499255
 
  0.00000000E+00  0.00000000E+00  0.00000000E+00
  0.00000000E+00  0.00000000E+00  0.00000000E+00
  0.00000000E+00  0.00000000E+00  0.00000000E+00
  0.00000000E+00  0.00000000E+00  0.00000000E+00
  0.00000000E+00  0.00000000E+00  0.00000000E+00
  0.00000000E+00  0.00000000E+00  0.00000000E+00
  0.00000000E+00  0.00000000E+00  0.00000000E+00
  0.00000000E+00  0.00000000E+00  0.00000000E+00
  0.00000000E+00  0.00000000E+00  0.00000000E+00
  0.00000000E+00  0.00000000E+00  0.00000000E+00
  0.00000000E+00  0.00000000E+00  0.00000000E+00
  0.00000000E+00  0.00000000E+00  0.00000000E+00
  0.00000000E+00  0.00000000E+00  0.00000000E+00
  0.00000000E+00  0.00000000E+00  0.00000000E+00
  0.00000000E+00  0.00000000E+00  0.00000000E+00
  0.00000000E+00  0.00000000E+00  0.00000000E+00
  0.00000000E+00  0.00000000E+00  0.00000000E+00
  0.00000000E+00  0.00000000E+00  0.00000000E+00
  0.00000000E+00  0.00000000E+00  0.00000000E+00
  0.00000000E+00  0.00000000E+00  0.00000000E+00
  0.00000000E+00  0.00000000E+00  0.00000000E+00
  0.00000000E+00  0.00000000E+00  0.00000000E+00
  0.00000000E+00  0.00000000E+00  0.00000000E+00
  0.00000000E+00  0.00000000E+00  0.00000000E+00
  0.00000000E+00  0.00000000E+00  0.00000000E+00
  0.00000000E+00  0.00000000E+00  0.00000000E+00
  0.00000000E+00  0.00000000E+00  0.00000000E+00
  0.00000000E+00  0.00000000E+00  0.00000000E+00
  0.00000000E+00  0.00000000E+00  0.00000000E+00
  0.00000000E+00  0.00000000E+00  0.00000000E+00
  0.00000000E+00  0.00000000E+00  0.00000000E+00
  0.00000000E+00  0.00000000E+00  0.00000000E+00
  0.00000000E+00  0.00000000E+00  0.00000000E+00
  0.00000000E+00  0.00000000E+00  0.00000000E+00
  0.00000000E+00  0.00000000E+00  0.00000000E+00
  0.00000000E+00  0.00000000E+00  0.00000000E+00
  0.00000000E+00  0.00000000E+00  0.00000000E+00
  0.00000000E+00  0.00000000E+00  0.00000000E+00
  0.00000000E+00  0.00000000E+00  0.00000000E+00
  0.00000000E+00  0.00000000E+00  0.00000000E+00
  0.00000000E+00  0.00000000E+00  0.00000000E+00
  0.00000000E+00  0.00000000E+00  0.00000000E+00
  0.00000000E+00  0.00000000E+00  0.00000000E+00
  0.00000000E+00  0.00000000E+00  0.00000000E+00
  0.00000000E+00  0.00000000E+00  0.00000000E+00
  0.00000000E+00  0.00000000E+00  0.00000000E+00
  0.00000000E+00  0.00000000E+00  0.00000000E+00
  0.00000000E+00  0.00000000E+00  0.00000000E+00
  0.00000000E+00  0.00000000E+00  0.00000000E+00
  0.00000000E+00  0.00000000E+00  0.00000000E+00
  0.00000000E+00  0.00000000E+00  0.00000000E+00
  0.00000000E+00  0.00000000E+00  0.00000000E+00
  0.00000000E+00  0.00000000E+00  0.00000000E+00
  0.00000000E+00  0.00000000E+00  0.00000000E+00
  0.00000000E+00  0.00000000E+00  0.00000000E+00
  0.00000000E+00  0.00000000E+00  0.00000000E+00
  0.00000000E+00  0.00000000E+00  0.00000000E+00
  0.00000000E+00  0.00000000E+00  0.00000000E+00
  0.00000000E+00  0.00000000E+00  0.00000000E+00
  0.00000000E+00  0.00000000E+00  0.00000000E+00
  0.00000000E+00  0.00000000E+00  0.00000000E+00
  0.00000000E+00  0.00000000E+00  0.00000000E+00
  0.00000000E+00  0.00000000E+00  0.00000000E+00
  0.00000000E+00  0.00000000E+00  0.00000000E+00
  0.00000000E+00  0.00000000E+00  0.00000000E+00
  0.00000000E+00  0.00000000E+00  0.00000000E+00
  0.00000000E+00  0.00000000E+00  0.00000000E+00
  0.00000000E+00  0.00000000E+00  0.00000000E+00
  0.00000000E+00  0.00000000E+00  0.00000000E+00
  0.00000000E+00  0.00000000E+00  0.00000000E+00
  0.00000000E+00  0.00000000E+00  0.00000000E+00
  0.00000000E+00  0.00000000E+00  0.00000000E+00
  0.00000000E+00  0.00000000E+00  0.00000000E+00
  0.00000000E+00  0.00000000E+00  0.00000000E+00
  0.00000000E+00  0.00000000E+00  0.00000000E+00
  0.00000000E+00  0.00000000E+00  0.00000000E+00
  0.00000000E+00  0.00000000E+00  0.00000000E+00
  0.00000000E+00  0.00000000E+00  0.00000000E+00
  0.00000000E+00  0.00000000E+00  0.00000000E+00
  0.00000000E+00  0.00000000E+00  0.00000000E+00
  0.00000000E+00  0.00000000E+00  0.00000000E+00
  0.00000000E+00  0.00000000E+00  0.00000000E+00
  0.00000000E+00  0.00000000E+00  0.00000000E+00
  0.00000000E+00  0.00000000E+00  0.00000000E+00
  0.00000000E+00  0.00000000E+00  0.00000000E+00
  0.00000000E+00  0.00000000E+00  0.00000000E+00
  0.00000000E+00  0.00000000E+00  0.00000000E+00
  0.00000000E+00  0.00000000E+00  0.00000000E+00
  0.00000000E+00  0.00000000E+00  0.00000000E+00
  0.00000000E+00  0.00000000E+00  0.00000000E+00
  0.00000000E+00  0.00000000E+00  0.00000000E+00
  0.00000000E+00  0.00000000E+00  0.00000000E+00
  0.00000000E+00  0.00000000E+00  0.00000000E+00
  0.00000000E+00  0.00000000E+00  0.00000000E+00
  0.00000000E+00  0.00000000E+00  0.00000000E+00
  0.00000000E+00  0.00000000E+00  0.00000000E+00
  0.00000000E+00  0.00000000E+00  0.00000000E+00
  0.00000000E+00  0.00000000E+00  0.00000000E+00
  0.00000000E+00  0.00000000E+00  0.00000000E+00
  0.00000000E+00  0.00000000E+00  0.00000000E+00
  0.00000000E+00  0.00000000E+00  0.00000000E+00
  0.00000000E+00  0.00000000E+00  0.00000000E+00
  0.00000000E+00  0.00000000E+00  0.00000000E+00
  0.00000000E+00  0.00000000E+00  0.00000000E+00
  0.00000000E+00  0.00000000E+00  0.00000000E+00
  0.00000000E+00  0.00000000E+00  0.00000000E+00
  0.00000000E+00  0.00000000E+00  0.00000000E+00
  0.00000000E+00  0.00000000E+00  0.00000000E+00
  0.00000000E+00  0.00000000E+00  0.00000000E+00
  0.00000000E+00  0.00000000E+00  0.00000000E+00
  0.00000000E+00  0.00000000E+00  0.00000000E+00
  0.00000000E+00  0.00000000E+00  0.00000000E+00
  0.00000000E+00  0.00000000E+00  0.00000000E+00
  0.00000000E+00  0.00000000E+00  0.00000000E+00
  0.00000000E+00  0.00000000E+00  0.00000000E+00
  0.00000000E+00  0.00000000E+00  0.00000000E+00
  0.00000000E+00  0.00000000E+00  0.00000000E+00
  0.00000000E+00  0.00000000E+00  0.00000000E+00
  0.00000000E+00  0.00000000E+00  0.00000000E+00
  0.00000000E+00  0.00000000E+00  0.00000000E+00
