Si Al Si  O Cu  O  H                    
   1.00000000000000     
    13.7117428102485572   -0.0007089864482829   -0.0000772515146739
    -6.8564341089479353   11.8743831809937230    0.0002001064042076
    -0.0000601617969401    0.0001113862051393   14.9361759746568339
   Si   Al   Si   O    Cu   O    H 
    29     1     6    72     1     1     1
Direct
  0.5627606022965372  0.6694082349180579  0.5612187930851593
  0.3343566192881675  0.8935940757595100  0.5614745679458907
 -0.0018059749757182  0.2259173884580728  0.1070404313939928
  0.3331047448883170  0.8945389840791990  0.7707974192475581
  0.7715568398344719  0.7715741679492334  0.1034352286794001
  0.4323277914864521  0.0946060222117975  0.4327864966607919
  0.6659712759138056  0.1009259941231575  0.4340319842868917
  0.1026939072816992  0.4373055785719010  0.7699751548792495
  0.2250985048086250  0.2237851596376910  0.1084637998298781
  0.2264488333447816  0.9973221932359463  0.1031071689007610
  0.8984725557396377  0.5681015808343852  0.4338663619791949
  0.5622383805745018  0.8970384471721017  0.7707709617539760
 -0.0009026541052340  0.7717325396992711  0.1022065944758553
  0.3328072039150400  0.4377633696252702  0.7739113934668798
  0.0961399649664908  0.4306691630858894  0.5622229759367435
  0.7701653732424534  0.9974445255340008  0.1047104363688662
  0.9987747781603379  0.7731099971101023  0.8917756283007344
  0.8942606230183039  0.3332031047739503  0.2288833666111419
  0.8888402612363394  0.3355533542478037  0.4364303816699834
  0.1053830923329314  0.6669850474195601  0.7696118340713036
  0.5614695762351839  0.6681786269467027  0.7689076009922087
  0.8946264582195947  0.5611376287299595  0.2271111687233308
  0.5678147809213980  0.8996489167626134  0.5626380319200353
  0.7733482595181199  0.0002787915048685  0.8941783525044336
  0.4359611039082431  0.3328210007438903  0.2327810934081465
  0.2275459899131533  0.2280938497714169  0.8990130665950491
  0.6662413665683211  0.1029983725338586  0.2279095507418525
  0.7719272689215134  0.7728648232017291  0.8929341196707854
  0.4346791246828439  0.1005092103806645  0.2294185738724406
  0.3293901436348451  0.4399967267450092  0.5594821599654063
 -0.0002211265473032  0.2285361238410259  0.8973951966564726
  0.6644128708370157  0.5598824422653333  0.2279292355482376
  0.2254100537124052  0.0005720131772118  0.8925347031041201
  0.1052556441821952  0.6648143876220507  0.5612124324419866
  0.4457852999367149  0.3328671252796166  0.4371611821660543
  0.6686426005308516  0.5655563610991209  0.4351468039505907
  0.2357937187966144  0.7645407441772359  0.7880249193003888
  0.1175756443298012  0.2366988536107850  0.1342295839958482
  0.9021140124943771  0.8049323008091438  0.1212277850712858
  0.5593097073739723  0.1195634998464853  0.4479857692642712
  0.2340564432798470  0.4697653509664533  0.7827921922903657
  0.1937293460827326  0.0938878559560931  0.1253425980365034
 -0.0016161347911435  0.2592484045306002  0.0024130140460692
  0.5289730586838526  0.7661892855026515  0.7852692855841221
  0.0955284376595670  0.9036879259568473  0.8727663461550401
  0.8057681576888867  0.9031332549100929  0.8734101514278176
  0.4338068592018517  0.5763467145748070  0.5439710465673254
  0.0980141951147576  0.1964590419133229  0.8803799710989119
  0.7634757927774704  0.5283348399314775  0.2155288898460759
  0.1296118111474032  0.5619619411965591  0.5462689545248108
  0.4642621362102721  0.2312356636665713  0.2220895303838474
  0.6480586628146057  0.6481858980782887  0.4992570078931452
  0.7651407928525640  0.2328836246318575  0.2115971148377375
  0.6639646078870174  0.6867186502547767  0.8339034872955398
  0.0205762734688720  0.6874924209737251  0.8318853337052042
  0.3112484583901345  0.9804084914607430  0.8309172519226787
  0.6855502366212105  0.6625001881206657  0.1619379702816881
  0.3460024347268263  0.9974856214754068  0.5008871469418603
  0.0223901487313724  0.3360686485238841  0.8374417546313325
  0.3367253792820589  0.0204084723843314  0.1596462982480776
  0.9857486817646443  0.3478701627226893  0.5038172548085061
  0.6660639200612263  0.9803403057189966  0.8348642516696264
  0.6814760056606055  0.0177471286582416  0.1619117674843437
  0.3649630426347086  0.3411464561895352  0.5141827379130272
  0.9757514488467983  0.6626957864849610  0.1603790595679027
  0.3299520286911478  0.3098883180215892  0.1705377023145077
  0.0030284466010293  0.6509551509205570  0.4977847626252341
  0.6560595056661469  0.0034809912586370  0.5006522229870342
  0.9808095282997363  0.3135862775247877  0.1680537853202284
  0.4385562381361729  0.8711294705208255  0.5440507075608352
  0.7775896222687546  0.2172747613386249  0.4593918612314596
  0.8606015857145930  0.4366252792133395  0.4512195454639735
  0.8990155192111127  0.0965420791777967  0.1250807367237836
  0.2178259079835357  0.7818407332559894  0.5350192972549893
  0.7569528388081550  0.8773011822564953  0.1333873844590444
  0.4333783385732386  0.2107897718338752  0.4528939950563189
  0.0923159470124881  0.5465485196224110  0.7960276969804402
  0.1208471033865658  0.8761901744143570  0.1313462260935755
  0.4527348086787308  0.5481083605493096  0.7953284715473424
  0.8773588212917479  0.7571792818560857  0.8644245460494562
  0.5465624045488987  0.0943583906748550  0.2056516436587690
  0.1975827155388601  0.4124883004604354  0.5326007098370196
  0.2410818520755457  0.1225162633959766  0.8663627377872650
  0.9047003192751123  0.4520278740598556  0.2004257203759083
  0.5819427516418659  0.7932876907716000  0.5369070406733515
  0.3148216896253458  0.3386041125786399  0.8425457254494170
  0.6615426712920114  0.5972940780469700  0.3309299793215332
  0.5756947935808454  0.4325606711603422  0.4522848756358694
  0.3316961692403378  0.9285119974691135  0.6659744352667569
  0.8798901201444844  0.1218662737000412  0.8682211639607591
  0.5448212231208495  0.4500947623533607  0.2016971222234203
  0.7406295276138412  0.7423009570492017 -0.0018877367253462
  0.3323433664062523  0.3917978746340769  0.6718150169251779
  0.3910630742949022  0.0536167021486427  0.3304299439744101
  0.0625244812599026  0.3985181294073930  0.6678003764949635
  0.2557731433825233 -0.0015092658365671  0.9973886348884129
  0.9285805867104489  0.3363081894241473  0.3334576818501714
  0.5990200444667957  0.6686324579346337  0.6658376342608493
  0.7410028303822402  0.9969998481719355  0.9992220008302194
  0.7927326423045794  0.5851271499884554  0.4574692613587849
  0.4038772912727289  0.3418121580599068  0.3369717859366581
  0.2596417584353031  0.2563067957186860  0.0040296918775249
  0.9364102448213413  0.6009756373426253  0.3295980132871366
  0.5988018029672393  0.9344149472705304  0.6673747552263889
  0.0000632806080798  0.7425281796698607  0.9967964609729454
  0.6702447998472842  0.0651184401021258  0.3306562870514609
  0.0721714210610070  0.6694849859136425  0.6654024659939143
  0.4540868907337924  0.9094269870339088  0.7973365527904805
  0.3721339464803916  0.2785943454983644  0.6355357101993862
  0.4150996616540623  0.1843403866685357  0.6747759574868140
  0.3584357412194714  0.1040750645869362  0.6777190660885111
 
  0.00000000E+00  0.00000000E+00  0.00000000E+00
  0.00000000E+00  0.00000000E+00  0.00000000E+00
  0.00000000E+00  0.00000000E+00  0.00000000E+00
  0.00000000E+00  0.00000000E+00  0.00000000E+00
  0.00000000E+00  0.00000000E+00  0.00000000E+00
  0.00000000E+00  0.00000000E+00  0.00000000E+00
  0.00000000E+00  0.00000000E+00  0.00000000E+00
  0.00000000E+00  0.00000000E+00  0.00000000E+00
  0.00000000E+00  0.00000000E+00  0.00000000E+00
  0.00000000E+00  0.00000000E+00  0.00000000E+00
  0.00000000E+00  0.00000000E+00  0.00000000E+00
  0.00000000E+00  0.00000000E+00  0.00000000E+00
  0.00000000E+00  0.00000000E+00  0.00000000E+00
  0.00000000E+00  0.00000000E+00  0.00000000E+00
  0.00000000E+00  0.00000000E+00  0.00000000E+00
  0.00000000E+00  0.00000000E+00  0.00000000E+00
  0.00000000E+00  0.00000000E+00  0.00000000E+00
  0.00000000E+00  0.00000000E+00  0.00000000E+00
  0.00000000E+00  0.00000000E+00  0.00000000E+00
  0.00000000E+00  0.00000000E+00  0.00000000E+00
  0.00000000E+00  0.00000000E+00  0.00000000E+00
  0.00000000E+00  0.00000000E+00  0.00000000E+00
  0.00000000E+00  0.00000000E+00  0.00000000E+00
  0.00000000E+00  0.00000000E+00  0.00000000E+00
  0.00000000E+00  0.00000000E+00  0.00000000E+00
  0.00000000E+00  0.00000000E+00  0.00000000E+00
  0.00000000E+00  0.00000000E+00  0.00000000E+00
  0.00000000E+00  0.00000000E+00  0.00000000E+00
  0.00000000E+00  0.00000000E+00  0.00000000E+00
  0.00000000E+00  0.00000000E+00  0.00000000E+00
  0.00000000E+00  0.00000000E+00  0.00000000E+00
  0.00000000E+00  0.00000000E+00  0.00000000E+00
  0.00000000E+00  0.00000000E+00  0.00000000E+00
  0.00000000E+00  0.00000000E+00  0.00000000E+00
  0.00000000E+00  0.00000000E+00  0.00000000E+00
  0.00000000E+00  0.00000000E+00  0.00000000E+00
  0.00000000E+00  0.00000000E+00  0.00000000E+00
  0.00000000E+00  0.00000000E+00  0.00000000E+00
  0.00000000E+00  0.00000000E+00  0.00000000E+00
  0.00000000E+00  0.00000000E+00  0.00000000E+00
  0.00000000E+00  0.00000000E+00  0.00000000E+00
  0.00000000E+00  0.00000000E+00  0.00000000E+00
  0.00000000E+00  0.00000000E+00  0.00000000E+00
  0.00000000E+00  0.00000000E+00  0.00000000E+00
  0.00000000E+00  0.00000000E+00  0.00000000E+00
  0.00000000E+00  0.00000000E+00  0.00000000E+00
  0.00000000E+00  0.00000000E+00  0.00000000E+00
  0.00000000E+00  0.00000000E+00  0.00000000E+00
  0.00000000E+00  0.00000000E+00  0.00000000E+00
  0.00000000E+00  0.00000000E+00  0.00000000E+00
  0.00000000E+00  0.00000000E+00  0.00000000E+00
  0.00000000E+00  0.00000000E+00  0.00000000E+00
  0.00000000E+00  0.00000000E+00  0.00000000E+00
  0.00000000E+00  0.00000000E+00  0.00000000E+00
  0.00000000E+00  0.00000000E+00  0.00000000E+00
  0.00000000E+00  0.00000000E+00  0.00000000E+00
  0.00000000E+00  0.00000000E+00  0.00000000E+00
  0.00000000E+00  0.00000000E+00  0.00000000E+00
  0.00000000E+00  0.00000000E+00  0.00000000E+00
  0.00000000E+00  0.00000000E+00  0.00000000E+00
  0.00000000E+00  0.00000000E+00  0.00000000E+00
  0.00000000E+00  0.00000000E+00  0.00000000E+00
  0.00000000E+00  0.00000000E+00  0.00000000E+00
  0.00000000E+00  0.00000000E+00  0.00000000E+00
  0.00000000E+00  0.00000000E+00  0.00000000E+00
  0.00000000E+00  0.00000000E+00  0.00000000E+00
  0.00000000E+00  0.00000000E+00  0.00000000E+00
  0.00000000E+00  0.00000000E+00  0.00000000E+00
  0.00000000E+00  0.00000000E+00  0.00000000E+00
  0.00000000E+00  0.00000000E+00  0.00000000E+00
  0.00000000E+00  0.00000000E+00  0.00000000E+00
  0.00000000E+00  0.00000000E+00  0.00000000E+00
  0.00000000E+00  0.00000000E+00  0.00000000E+00
  0.00000000E+00  0.00000000E+00  0.00000000E+00
  0.00000000E+00  0.00000000E+00  0.00000000E+00
  0.00000000E+00  0.00000000E+00  0.00000000E+00
  0.00000000E+00  0.00000000E+00  0.00000000E+00
  0.00000000E+00  0.00000000E+00  0.00000000E+00
  0.00000000E+00  0.00000000E+00  0.00000000E+00
  0.00000000E+00  0.00000000E+00  0.00000000E+00
  0.00000000E+00  0.00000000E+00  0.00000000E+00
  0.00000000E+00  0.00000000E+00  0.00000000E+00
  0.00000000E+00  0.00000000E+00  0.00000000E+00
  0.00000000E+00  0.00000000E+00  0.00000000E+00
  0.00000000E+00  0.00000000E+00  0.00000000E+00
  0.00000000E+00  0.00000000E+00  0.00000000E+00
  0.00000000E+00  0.00000000E+00  0.00000000E+00
  0.00000000E+00  0.00000000E+00  0.00000000E+00
  0.00000000E+00  0.00000000E+00  0.00000000E+00
  0.00000000E+00  0.00000000E+00  0.00000000E+00
  0.00000000E+00  0.00000000E+00  0.00000000E+00
  0.00000000E+00  0.00000000E+00  0.00000000E+00
  0.00000000E+00  0.00000000E+00  0.00000000E+00
  0.00000000E+00  0.00000000E+00  0.00000000E+00
  0.00000000E+00  0.00000000E+00  0.00000000E+00
  0.00000000E+00  0.00000000E+00  0.00000000E+00
  0.00000000E+00  0.00000000E+00  0.00000000E+00
  0.00000000E+00  0.00000000E+00  0.00000000E+00
  0.00000000E+00  0.00000000E+00  0.00000000E+00
  0.00000000E+00  0.00000000E+00  0.00000000E+00
  0.00000000E+00  0.00000000E+00  0.00000000E+00
  0.00000000E+00  0.00000000E+00  0.00000000E+00
  0.00000000E+00  0.00000000E+00  0.00000000E+00
  0.00000000E+00  0.00000000E+00  0.00000000E+00
  0.00000000E+00  0.00000000E+00  0.00000000E+00
  0.00000000E+00  0.00000000E+00  0.00000000E+00
  0.00000000E+00  0.00000000E+00  0.00000000E+00
  0.00000000E+00  0.00000000E+00  0.00000000E+00
  0.00000000E+00  0.00000000E+00  0.00000000E+00
  0.00000000E+00  0.00000000E+00  0.00000000E+00
  0.00000000E+00  0.00000000E+00  0.00000000E+00
