Si Al Si  O Cu  O  H                    
   1.00000000000000     
    13.7117428102485572   -0.0007089864482829   -0.0000772515146739
    -6.8564341089479353   11.8743831809937230    0.0002001064042076
    -0.0000601617969401    0.0001113862051393   14.9361759746568339
   Si   Al   Si   O    Cu   O    H 
    29     1     6    72     1     1     1
Direct
  0.5672592861525680  0.6785608123700382  0.5615882440464839
  0.3339337982354337  0.8993709697856199  0.5603044929577279
  0.0012337763312919  0.2342610093029614  0.1033470602661660
  0.3346285926583351  0.9015686976468134  0.7693934514538401
  0.7738021926529305  0.7777752673629253  0.1044244425712778
  0.4367236100963383  0.1109510604901305  0.4346048938648335
  0.6642233654552598  0.1103473282101163  0.4352198361125150
  0.1101481656630465  0.4462294443765023  0.7720789219412241
  0.2251553237465261  0.2290234537838406  0.1066584856924457
  0.2276998792824051  0.0031329670007597  0.1035739099273878
  0.8934948439708653  0.5674592005219427  0.4355315929098483
  0.5616753695931337  0.9012702529435123  0.7710299700422600
  0.0006145390122240  0.7752779854779739  0.1026057306842259
  0.3357363186192976  0.4434125133934924  0.7735589512914370
  0.1022080965338236  0.4429922574872621  0.5600814467015216
  0.7722920293065828  0.0046334645315241  0.1029837060506015
  0.0003024596383136  0.7769832742288364  0.8936857643227936
  0.8954413321075986  0.3384349085663788  0.2292530856463030
  0.8922861539853797  0.3393207095400690  0.4361702200108012
  0.1060900529531037  0.6720447672439520  0.7693924029346284
  0.5639512304378418  0.6741108559401939  0.7693038853816384
  0.8947313173742710  0.5659772739298468  0.2278207245758069
  0.5625127736052525  0.9024206263707969  0.5625152489690601
  0.7729989818058550  0.0059221725963608  0.8952283483283187
  0.4427958603463301  0.3379339666136651  0.2213057349620932
  0.2285380441904549  0.2335727030734295  0.8953800201109361
  0.6664065050857024  0.1074978055448484  0.2290027213549518
  0.7733203271525814  0.7783426725401403  0.8953201147661418
  0.4390116838527875  0.1096634182935305  0.2247412149815169
  0.3364833310425633  0.4473066610081298  0.5644127518882718
  0.0025199218311162  0.2353523833888101  0.8938484884316639
  0.6647298894058471  0.5651485981063065  0.2268159330336598
  0.2277655685040430  0.0062332664379493  0.8934030508402229
  0.1041419038005368  0.6716723840172759  0.5602797354674417
  0.4374332943447832  0.3373448241416070  0.4340428807412197
  0.6628184386510110  0.5666251902423916  0.4378593475524545
  0.2359788759039225  0.7712695044807689  0.7848598859337255
  0.1193458517585965  0.2445629545792438  0.1371711944852782
  0.9035128083917525  0.8082244817955867  0.1210675746057742
  0.5676737811960828  0.1451936170749478  0.4485680101699859
  0.2381968176892008  0.4767390732692613  0.7943818712608726
  0.1948860082601262  0.0999609317466291  0.1259013948342638
  0.0089310190115384  0.2713256202447343 -0.0009074472725153
  0.5300742470641430  0.7712272454415243  0.7866192380792195
  0.0978207988092122  0.9074532073683620  0.8768529399924863
  0.8073011118920149  0.9093356961821172  0.8787864549461992
  0.4387000381103204  0.5836741746344478  0.5450556020133969
  0.0996886133329614  0.2030714961927043  0.8733719491257848
  0.7648069226817998  0.5353837298999808  0.2131095208188220
  0.1354431675809754  0.5730151283087707  0.5410564905557155
  0.4721438056132993  0.2388471379062289  0.2009113249459291
  0.6530755262987354  0.6590871066235667  0.4981583293173041
  0.7657388075200757  0.2380427771021606  0.2153910615210092
  0.6673285739556608  0.6942030674082479  0.8340643312737624
  0.0207789742650260  0.6923335839327928  0.8312092219960922
  0.3129294018099013  0.9857155930472183  0.8316108007877326
  0.6884416491999866  0.6738814049063040  0.1678014951569300
  0.3542077625610910  0.0035782599232220  0.4960928358426043
  0.0199996563825533  0.3394469920690264  0.8312456774158765
  0.3342754575327443  0.0217437343848423  0.1634618543583337
  0.9911312539584698  0.3559150144484213  0.5044181647899877
  0.6684393562504397  0.9859801486511787  0.8323825799318730
  0.6874144868468488  0.0242111158816281  0.1656553692707805
  0.3386727601927294  0.3530219847988064  0.4825143667015372
  0.9795274232476441  0.6690058530976802  0.1638696376569509
  0.3318859477393173  0.3169430092613657  0.1664528890090407
  0.9977675190935303  0.6517390996789975  0.4992539617098615
  0.6452367842121411  0.0103981399000257  0.5021224279697291
  0.9803865178976018  0.3187321770473021  0.1660201862500842
  0.4309196985310724  0.8655805508569885  0.5438708302294487
  0.7844081861561614  0.2188041706128846  0.4589347553657424
  0.8599874983585687  0.4369826066295993  0.4523559266272627
  0.9021889904601724  0.1045444686458463  0.1176466451785122
  0.2122493751895969  0.7923012497891249  0.5345864071548801
  0.7626492906839665  0.8862267051869087  0.1312574583437613
  0.4234882106627951  0.2176601727868374  0.4647832810718052
  0.0947377417647862  0.5527165051070053  0.7974065162086503
  0.1215748731320683  0.8816726224978955  0.1296935625051186
  0.4571474318560000  0.5534762616935879  0.7953582564855676
  0.8797273189837032  0.7639049472817078  0.8677109878932204
  0.5467024439539432  0.0957418206016899  0.2016945377011257
  0.2030458933058051  0.4221883545093846  0.5232025211748637
  0.2413291124795832  0.1266877108704427  0.8659901472807183
  0.9047004470004343  0.4567335447991477  0.2010277504334787
  0.5848473319608071  0.8015115047717633  0.5354025421737540
  0.3198881048560835  0.3443143051887993  0.8423916794413741
  0.6541368684005718  0.5899997746200624  0.3318419856484382
  0.5614565173888216  0.4391491657729639  0.4630838937544107
  0.3360269860206113  0.9359564106055134  0.6645461830815116
  0.8804465271746442  0.1277390278666455  0.8712380350790196
  0.5478012214575790  0.4584195182737230  0.1916016548697570
  0.7397104160958557  0.7441253713609192  0.0000175911319097
  0.3271963196500746  0.4012055868203280  0.6722178936704335
  0.4024215180360121  0.0814606453690995  0.3295529365324805
  0.0822306273210819  0.4151298155609136  0.6661544024858991
  0.2606512976041578  0.0074241139675376  0.9984264630355407
  0.9341506238150172  0.3435553571064824  0.3332521888397315
  0.6041250637373389  0.6793247208075666  0.6660769053146440
  0.7357776311231703  0.0028481593303111 -0.0007873313823212
  0.7838246121217105  0.5775879096803029  0.4592289109716126
  0.4171087818045045  0.3390873385122964  0.3272698499421125
  0.2535059471407171  0.2590499672813991  0.0018822062938397
  0.9315701965566379  0.6019475023765719  0.3316472917991082
  0.5941456938578461  0.9376385141344317  0.6669533301992121
  0.0004673675175204  0.7423150644515500  0.9979642404230807
  0.6631628108792148  0.0696356523450866  0.3326549289684319
  0.0704863404575518  0.6694797082164192  0.6649782266110345
  0.4541716630851829  0.9141099619828482  0.7988225208332218
  0.1921587277314103  0.3178522223504661  0.4265427495541821
  0.1007608792391294  0.2278700258318551  0.3423218696487591
  0.1145289808634594  0.2580245569359042  0.2810771368891727
 
  0.00000000E+00  0.00000000E+00  0.00000000E+00
  0.00000000E+00  0.00000000E+00  0.00000000E+00
  0.00000000E+00  0.00000000E+00  0.00000000E+00
  0.00000000E+00  0.00000000E+00  0.00000000E+00
  0.00000000E+00  0.00000000E+00  0.00000000E+00
  0.00000000E+00  0.00000000E+00  0.00000000E+00
  0.00000000E+00  0.00000000E+00  0.00000000E+00
  0.00000000E+00  0.00000000E+00  0.00000000E+00
  0.00000000E+00  0.00000000E+00  0.00000000E+00
  0.00000000E+00  0.00000000E+00  0.00000000E+00
  0.00000000E+00  0.00000000E+00  0.00000000E+00
  0.00000000E+00  0.00000000E+00  0.00000000E+00
  0.00000000E+00  0.00000000E+00  0.00000000E+00
  0.00000000E+00  0.00000000E+00  0.00000000E+00
  0.00000000E+00  0.00000000E+00  0.00000000E+00
  0.00000000E+00  0.00000000E+00  0.00000000E+00
  0.00000000E+00  0.00000000E+00  0.00000000E+00
  0.00000000E+00  0.00000000E+00  0.00000000E+00
  0.00000000E+00  0.00000000E+00  0.00000000E+00
  0.00000000E+00  0.00000000E+00  0.00000000E+00
  0.00000000E+00  0.00000000E+00  0.00000000E+00
  0.00000000E+00  0.00000000E+00  0.00000000E+00
  0.00000000E+00  0.00000000E+00  0.00000000E+00
  0.00000000E+00  0.00000000E+00  0.00000000E+00
  0.00000000E+00  0.00000000E+00  0.00000000E+00
  0.00000000E+00  0.00000000E+00  0.00000000E+00
  0.00000000E+00  0.00000000E+00  0.00000000E+00
  0.00000000E+00  0.00000000E+00  0.00000000E+00
  0.00000000E+00  0.00000000E+00  0.00000000E+00
  0.00000000E+00  0.00000000E+00  0.00000000E+00
  0.00000000E+00  0.00000000E+00  0.00000000E+00
  0.00000000E+00  0.00000000E+00  0.00000000E+00
  0.00000000E+00  0.00000000E+00  0.00000000E+00
  0.00000000E+00  0.00000000E+00  0.00000000E+00
  0.00000000E+00  0.00000000E+00  0.00000000E+00
  0.00000000E+00  0.00000000E+00  0.00000000E+00
  0.00000000E+00  0.00000000E+00  0.00000000E+00
  0.00000000E+00  0.00000000E+00  0.00000000E+00
  0.00000000E+00  0.00000000E+00  0.00000000E+00
  0.00000000E+00  0.00000000E+00  0.00000000E+00
  0.00000000E+00  0.00000000E+00  0.00000000E+00
  0.00000000E+00  0.00000000E+00  0.00000000E+00
  0.00000000E+00  0.00000000E+00  0.00000000E+00
  0.00000000E+00  0.00000000E+00  0.00000000E+00
  0.00000000E+00  0.00000000E+00  0.00000000E+00
  0.00000000E+00  0.00000000E+00  0.00000000E+00
  0.00000000E+00  0.00000000E+00  0.00000000E+00
  0.00000000E+00  0.00000000E+00  0.00000000E+00
  0.00000000E+00  0.00000000E+00  0.00000000E+00
  0.00000000E+00  0.00000000E+00  0.00000000E+00
  0.00000000E+00  0.00000000E+00  0.00000000E+00
  0.00000000E+00  0.00000000E+00  0.00000000E+00
  0.00000000E+00  0.00000000E+00  0.00000000E+00
  0.00000000E+00  0.00000000E+00  0.00000000E+00
  0.00000000E+00  0.00000000E+00  0.00000000E+00
  0.00000000E+00  0.00000000E+00  0.00000000E+00
  0.00000000E+00  0.00000000E+00  0.00000000E+00
  0.00000000E+00  0.00000000E+00  0.00000000E+00
  0.00000000E+00  0.00000000E+00  0.00000000E+00
  0.00000000E+00  0.00000000E+00  0.00000000E+00
  0.00000000E+00  0.00000000E+00  0.00000000E+00
  0.00000000E+00  0.00000000E+00  0.00000000E+00
  0.00000000E+00  0.00000000E+00  0.00000000E+00
  0.00000000E+00  0.00000000E+00  0.00000000E+00
  0.00000000E+00  0.00000000E+00  0.00000000E+00
  0.00000000E+00  0.00000000E+00  0.00000000E+00
  0.00000000E+00  0.00000000E+00  0.00000000E+00
  0.00000000E+00  0.00000000E+00  0.00000000E+00
  0.00000000E+00  0.00000000E+00  0.00000000E+00
  0.00000000E+00  0.00000000E+00  0.00000000E+00
  0.00000000E+00  0.00000000E+00  0.00000000E+00
  0.00000000E+00  0.00000000E+00  0.00000000E+00
  0.00000000E+00  0.00000000E+00  0.00000000E+00
  0.00000000E+00  0.00000000E+00  0.00000000E+00
  0.00000000E+00  0.00000000E+00  0.00000000E+00
  0.00000000E+00  0.00000000E+00  0.00000000E+00
  0.00000000E+00  0.00000000E+00  0.00000000E+00
  0.00000000E+00  0.00000000E+00  0.00000000E+00
  0.00000000E+00  0.00000000E+00  0.00000000E+00
  0.00000000E+00  0.00000000E+00  0.00000000E+00
  0.00000000E+00  0.00000000E+00  0.00000000E+00
  0.00000000E+00  0.00000000E+00  0.00000000E+00
  0.00000000E+00  0.00000000E+00  0.00000000E+00
  0.00000000E+00  0.00000000E+00  0.00000000E+00
  0.00000000E+00  0.00000000E+00  0.00000000E+00
  0.00000000E+00  0.00000000E+00  0.00000000E+00
  0.00000000E+00  0.00000000E+00  0.00000000E+00
  0.00000000E+00  0.00000000E+00  0.00000000E+00
  0.00000000E+00  0.00000000E+00  0.00000000E+00
  0.00000000E+00  0.00000000E+00  0.00000000E+00
  0.00000000E+00  0.00000000E+00  0.00000000E+00
  0.00000000E+00  0.00000000E+00  0.00000000E+00
  0.00000000E+00  0.00000000E+00  0.00000000E+00
  0.00000000E+00  0.00000000E+00  0.00000000E+00
  0.00000000E+00  0.00000000E+00  0.00000000E+00
  0.00000000E+00  0.00000000E+00  0.00000000E+00
  0.00000000E+00  0.00000000E+00  0.00000000E+00
  0.00000000E+00  0.00000000E+00  0.00000000E+00
  0.00000000E+00  0.00000000E+00  0.00000000E+00
  0.00000000E+00  0.00000000E+00  0.00000000E+00
  0.00000000E+00  0.00000000E+00  0.00000000E+00
  0.00000000E+00  0.00000000E+00  0.00000000E+00
  0.00000000E+00  0.00000000E+00  0.00000000E+00
  0.00000000E+00  0.00000000E+00  0.00000000E+00
  0.00000000E+00  0.00000000E+00  0.00000000E+00
  0.00000000E+00  0.00000000E+00  0.00000000E+00
  0.00000000E+00  0.00000000E+00  0.00000000E+00
  0.00000000E+00  0.00000000E+00  0.00000000E+00
  0.00000000E+00  0.00000000E+00  0.00000000E+00
  0.00000000E+00  0.00000000E+00  0.00000000E+00
  0.00000000E+00  0.00000000E+00  0.00000000E+00
