Si Al Si  O Cu  O  H                    
   1.00000000000000     
    13.7117428102485572   -0.0007089864482829   -0.0000772515146739
    -6.8564341089479353   11.8743831809937230    0.0002001064042076
    -0.0000601617969401    0.0001113862051393   14.9361759746568339
   Si   Al   Si   O    Cu   O    H 
    29     1     6    72     1     1     1
Direct
  0.5643942201418483  0.6706425132119928  0.5620044619880084
  0.3353213125135310  0.8944547411764757  0.5624237547614277
  0.0012461298505852  0.2293143807000204  0.1058618205955680
  0.3331158856272480  0.8956285850815725  0.7726751945499057
  0.7721490739387956  0.7730203550089676  0.1046336683755945
  0.4381409271087114  0.1029118986447314  0.4350984203003980
  0.6687034142539506  0.1068836918038260  0.4368021013551327
  0.1069877549163339  0.4402973257266127  0.7720515511587503
  0.2258902052037659  0.2250865971642749  0.1085961859325568
  0.2280907734034932  0.9997766768924247  0.1055667082287676
  0.8961797583966167  0.5660048625048701  0.4375665106134062
  0.5615826226597262  0.8985689902840477  0.7721755343182424
  0.0001579179361677  0.7729627281601269  0.1052472080735956
  0.3332524280395337  0.4429837370232027  0.7799265313627596
  0.1025087242759887  0.4413264815334966  0.5635102991646118
  0.7719435359719020 -0.0000957233205465  0.1045741549315237
 -0.0006442372016015  0.7730019156774032  0.8961403932571989
  0.8960582400006414  0.3354130886730843  0.2300875827449441
  0.8963877521547216  0.3370437874388033  0.4390432199066255
  0.1037307454472762  0.6704351335451413  0.7703528492073122
  0.5598609334968307  0.6675954377843099  0.7723694809356986
  0.8957628981469243  0.5624044048488810  0.2295970135361457
  0.5654591894082308  0.8998912429671752  0.5639952297349352
  0.7726148069840798  0.0026637366866451  0.8965111173268848
  0.4397757745997100  0.3327400148774318  0.2271205799200900
  0.2256975918240768  0.2281243209468359  0.8972438989674579
  0.6682760032219428  0.1054711968298422  0.2298410214172277
  0.7733198394287670  0.7757657233866736  0.8951105820924680
  0.4382816901975782  0.1027112166152151  0.2277025196455649
  0.3322631756908356  0.4337985980697211  0.5659344084831821
  0.0003920800545490  0.2322879620975098  0.8967588597796962
  0.6652472630425676  0.5611129347480690  0.2286503067931308
  0.2265830656425711  0.0024310103725581  0.8943612571050312
  0.1001502160368715  0.6738417729061341  0.5642033226814707
  0.4365182987081110  0.3308642732267363  0.4368407605968685
  0.6635607684472934  0.5605903051118624  0.4367407299712884
  0.2344649932780266  0.7656042704036610  0.7899825323084732
  0.1192547241008779  0.2390977945674571  0.1361658751698515
  0.9023107299780003  0.8052893218229680  0.1222880498198912
  0.5683803299469082  0.1355346836055754  0.4510478714789969
  0.2352143815378932  0.4759669092140395  0.7994638186045322
  0.1965774814282274  0.0965859856274796  0.1301053834622621
  0.0052686266451764  0.2669391858805183  0.0017917412165568
  0.5306324733413337  0.7683853630332592  0.7845678436285256
  0.0973258992956657  0.9024619711955123  0.8770078310249487
  0.8073156981209368  0.9066267542754783  0.8781207520675767
  0.4327014062088211  0.5785087390007027  0.5369544782502123
  0.0969318514640442  0.1989350122689867  0.8767318724659035
  0.7655524704314969  0.5312276174586927  0.2164159295344061
  0.1194471072194986  0.5668740973472117  0.5529100115374631
  0.4686547780563542  0.2322053318093909  0.2105594457978323
  0.6486007530295889  0.6481553827520181  0.5008550135344747
  0.7660256973894392  0.2361599041758668  0.2147944564147338
  0.6689327920300120  0.6925048106814707  0.8315442283957537
  0.0188573492335329  0.6853673310475017  0.8366628477529584
  0.3124737434012331  0.9818060180654631  0.8330847414172649
  0.6870109281669406  0.6662388522712360  0.1655118875117896
  0.3551186250325430 -0.0011585459757549  0.4996560977525882
  0.0179856366150486  0.3370292996642661  0.8345398679806119
  0.3358344850518654  0.0171234624158584  0.1632722839243687
  0.9985659925290565  0.3510448941068153  0.5029037390065372
  0.6673810115241238  0.9823323490424822  0.8341865536576502
  0.6875594005346951  0.0210455226640892  0.1665025677548579
  0.3479502574061434  0.3438044899437339  0.4970897086075944
  0.9793415594809144  0.6667489832954220  0.1663044099882609
  0.3343511078340846  0.3142593922500203  0.1658165015905667
 -0.0019857782958335  0.6576239086649888  0.5000696816070728
  0.6503665880296597  0.0044420538427950  0.5016637795996779
  0.9803866724356959  0.3135526692539045  0.1686013560325470
  0.4334915085180681  0.8618698442710367  0.5439475229988177
  0.7867566265160786  0.2173830397849170  0.4632344775420139
  0.8699642752189484  0.4384616669420802  0.4592233231226282
  0.9019677035531105  0.0989875162853031  0.1195619070163208
  0.2158544027965887  0.7857726005873854  0.5335913847795787
  0.7595635122196167  0.8802237211531756  0.1330882637327403
  0.4280289403478270  0.2112799877726170  0.4604400857161128
  0.0881894214149001  0.5468878257400233  0.7864289491582197
  0.1213383403990362  0.8787887617575980  0.1323749358317052
  0.4538503829405634  0.5515040540582361  0.8072719377405612
  0.8794169299812891  0.7604388235914700  0.8686166240665051
  0.5480456349308124  0.0927122750767440  0.2035725751522429
  0.2204056658630728  0.4537331968356395  0.5256733078881938
  0.2384602587518442  0.1217752356460607  0.8652747241842492
  0.9070408934837166  0.4543940856309214  0.2013357400270226
  0.5842330335257692  0.7951018525877677  0.5402722608386674
  0.3154322049996406  0.3398916529127435  0.8443985054893089
  0.6590830962389647  0.5941325750578786  0.3326185723222803
  0.5665982901927529  0.4312382951061016  0.4559800208932061
  0.3346062415691145  0.9268431355065119  0.6669579000103957
  0.8786254691292126  0.1250482669587753  0.8723804765355101
  0.5480803560333591  0.4518949463754132  0.1983427895668633
  0.7388947633967656  0.7417334011473841 -0.0003772360799201
  0.3299058862335569  0.4080964588546336  0.6774054979663834
  0.4012221267668570  0.0650355822026556  0.3314715181647505
  0.0819675324195271  0.4001983255759050  0.6671282717310564
  0.2583927408721393  0.0039984079282300 -0.0003896717461155
  0.9319243548704784  0.3395331916271180  0.3347784415960660
  0.5869812580622773  0.6582171628172001  0.6670899785743293
  0.7355586740119090  0.9975571218029737  0.0005978335769118
  0.7851573887626568  0.5740217731562280  0.4596625259582940
  0.4079467976980302  0.3345571160313718  0.3312042022748579
  0.2538418289357424  0.2516093969470307  0.0031335542992894
  0.9337849439942438  0.5970815509400444  0.3334657960796623
  0.5947254059657945  0.9369069859877985  0.6681639050131897
 -0.0001293922762699  0.7402511491606494  0.0006157795246053
  0.6699332581562619  0.0695823549130905  0.3336392566283688
  0.0706104971639049  0.6839615800367814  0.6678799334428694
  0.4532256061450032  0.9090199890901804  0.8011936986509042
  0.3258160310832270  0.5952478402349841  0.4588912830121367
  0.3210720795665649  0.6739587402452938  0.3664598307424097
  0.3115111390607128  0.7377249747061687  0.3830143310926323
 
  0.00000000E+00  0.00000000E+00  0.00000000E+00
  0.00000000E+00  0.00000000E+00  0.00000000E+00
  0.00000000E+00  0.00000000E+00  0.00000000E+00
  0.00000000E+00  0.00000000E+00  0.00000000E+00
  0.00000000E+00  0.00000000E+00  0.00000000E+00
  0.00000000E+00  0.00000000E+00  0.00000000E+00
  0.00000000E+00  0.00000000E+00  0.00000000E+00
  0.00000000E+00  0.00000000E+00  0.00000000E+00
  0.00000000E+00  0.00000000E+00  0.00000000E+00
  0.00000000E+00  0.00000000E+00  0.00000000E+00
  0.00000000E+00  0.00000000E+00  0.00000000E+00
  0.00000000E+00  0.00000000E+00  0.00000000E+00
  0.00000000E+00  0.00000000E+00  0.00000000E+00
  0.00000000E+00  0.00000000E+00  0.00000000E+00
  0.00000000E+00  0.00000000E+00  0.00000000E+00
  0.00000000E+00  0.00000000E+00  0.00000000E+00
  0.00000000E+00  0.00000000E+00  0.00000000E+00
  0.00000000E+00  0.00000000E+00  0.00000000E+00
  0.00000000E+00  0.00000000E+00  0.00000000E+00
  0.00000000E+00  0.00000000E+00  0.00000000E+00
  0.00000000E+00  0.00000000E+00  0.00000000E+00
  0.00000000E+00  0.00000000E+00  0.00000000E+00
  0.00000000E+00  0.00000000E+00  0.00000000E+00
  0.00000000E+00  0.00000000E+00  0.00000000E+00
  0.00000000E+00  0.00000000E+00  0.00000000E+00
  0.00000000E+00  0.00000000E+00  0.00000000E+00
  0.00000000E+00  0.00000000E+00  0.00000000E+00
  0.00000000E+00  0.00000000E+00  0.00000000E+00
  0.00000000E+00  0.00000000E+00  0.00000000E+00
  0.00000000E+00  0.00000000E+00  0.00000000E+00
  0.00000000E+00  0.00000000E+00  0.00000000E+00
  0.00000000E+00  0.00000000E+00  0.00000000E+00
  0.00000000E+00  0.00000000E+00  0.00000000E+00
  0.00000000E+00  0.00000000E+00  0.00000000E+00
  0.00000000E+00  0.00000000E+00  0.00000000E+00
  0.00000000E+00  0.00000000E+00  0.00000000E+00
  0.00000000E+00  0.00000000E+00  0.00000000E+00
  0.00000000E+00  0.00000000E+00  0.00000000E+00
  0.00000000E+00  0.00000000E+00  0.00000000E+00
  0.00000000E+00  0.00000000E+00  0.00000000E+00
  0.00000000E+00  0.00000000E+00  0.00000000E+00
  0.00000000E+00  0.00000000E+00  0.00000000E+00
  0.00000000E+00  0.00000000E+00  0.00000000E+00
  0.00000000E+00  0.00000000E+00  0.00000000E+00
  0.00000000E+00  0.00000000E+00  0.00000000E+00
  0.00000000E+00  0.00000000E+00  0.00000000E+00
  0.00000000E+00  0.00000000E+00  0.00000000E+00
  0.00000000E+00  0.00000000E+00  0.00000000E+00
  0.00000000E+00  0.00000000E+00  0.00000000E+00
  0.00000000E+00  0.00000000E+00  0.00000000E+00
  0.00000000E+00  0.00000000E+00  0.00000000E+00
  0.00000000E+00  0.00000000E+00  0.00000000E+00
  0.00000000E+00  0.00000000E+00  0.00000000E+00
  0.00000000E+00  0.00000000E+00  0.00000000E+00
  0.00000000E+00  0.00000000E+00  0.00000000E+00
  0.00000000E+00  0.00000000E+00  0.00000000E+00
  0.00000000E+00  0.00000000E+00  0.00000000E+00
  0.00000000E+00  0.00000000E+00  0.00000000E+00
  0.00000000E+00  0.00000000E+00  0.00000000E+00
  0.00000000E+00  0.00000000E+00  0.00000000E+00
  0.00000000E+00  0.00000000E+00  0.00000000E+00
  0.00000000E+00  0.00000000E+00  0.00000000E+00
  0.00000000E+00  0.00000000E+00  0.00000000E+00
  0.00000000E+00  0.00000000E+00  0.00000000E+00
  0.00000000E+00  0.00000000E+00  0.00000000E+00
  0.00000000E+00  0.00000000E+00  0.00000000E+00
  0.00000000E+00  0.00000000E+00  0.00000000E+00
  0.00000000E+00  0.00000000E+00  0.00000000E+00
  0.00000000E+00  0.00000000E+00  0.00000000E+00
  0.00000000E+00  0.00000000E+00  0.00000000E+00
  0.00000000E+00  0.00000000E+00  0.00000000E+00
  0.00000000E+00  0.00000000E+00  0.00000000E+00
  0.00000000E+00  0.00000000E+00  0.00000000E+00
  0.00000000E+00  0.00000000E+00  0.00000000E+00
  0.00000000E+00  0.00000000E+00  0.00000000E+00
  0.00000000E+00  0.00000000E+00  0.00000000E+00
  0.00000000E+00  0.00000000E+00  0.00000000E+00
  0.00000000E+00  0.00000000E+00  0.00000000E+00
  0.00000000E+00  0.00000000E+00  0.00000000E+00
  0.00000000E+00  0.00000000E+00  0.00000000E+00
  0.00000000E+00  0.00000000E+00  0.00000000E+00
  0.00000000E+00  0.00000000E+00  0.00000000E+00
  0.00000000E+00  0.00000000E+00  0.00000000E+00
  0.00000000E+00  0.00000000E+00  0.00000000E+00
  0.00000000E+00  0.00000000E+00  0.00000000E+00
  0.00000000E+00  0.00000000E+00  0.00000000E+00
  0.00000000E+00  0.00000000E+00  0.00000000E+00
  0.00000000E+00  0.00000000E+00  0.00000000E+00
  0.00000000E+00  0.00000000E+00  0.00000000E+00
  0.00000000E+00  0.00000000E+00  0.00000000E+00
  0.00000000E+00  0.00000000E+00  0.00000000E+00
  0.00000000E+00  0.00000000E+00  0.00000000E+00
  0.00000000E+00  0.00000000E+00  0.00000000E+00
  0.00000000E+00  0.00000000E+00  0.00000000E+00
  0.00000000E+00  0.00000000E+00  0.00000000E+00
  0.00000000E+00  0.00000000E+00  0.00000000E+00
  0.00000000E+00  0.00000000E+00  0.00000000E+00
  0.00000000E+00  0.00000000E+00  0.00000000E+00
  0.00000000E+00  0.00000000E+00  0.00000000E+00
  0.00000000E+00  0.00000000E+00  0.00000000E+00
  0.00000000E+00  0.00000000E+00  0.00000000E+00
  0.00000000E+00  0.00000000E+00  0.00000000E+00
  0.00000000E+00  0.00000000E+00  0.00000000E+00
  0.00000000E+00  0.00000000E+00  0.00000000E+00
  0.00000000E+00  0.00000000E+00  0.00000000E+00
  0.00000000E+00  0.00000000E+00  0.00000000E+00
  0.00000000E+00  0.00000000E+00  0.00000000E+00
  0.00000000E+00  0.00000000E+00  0.00000000E+00
  0.00000000E+00  0.00000000E+00  0.00000000E+00
  0.00000000E+00  0.00000000E+00  0.00000000E+00
  0.00000000E+00  0.00000000E+00  0.00000000E+00
